52
Lattice="10.279498 0.0 0.0 0.0 10.279498 0.0 0.0 0.0 10.279498" Properties=species:S:1:pos:R:3:dft_forces:R:3 spacegroup="_JSON {\"number\": 1, \"setting\": 1}" unit_cell=conventional occupancy="_JSON {\"0\": {\"Li\": 1.0}, \"1\": {\"Li\": 1.0}, \"2\": {\"Li\": 1.0}, \"3\": {\"Li\": 1.0}, \"4\": {\"Li\": 1.0}, \"5\": {\"Li\": 1.0}, \"6\": {\"Li\": 1.0}, \"7\": {\"Li\": 1.0}, \"8\": {\"Li\": 1.0}, \"9\": {\"Li\": 1.0}, \"10\": {\"Li\": 1.0}, \"11\": {\"Li\": 1.0}, \"12\": {\"Li\": 1.0}, \"13\": {\"Li\": 1.0}, \"14\": {\"Li\": 1.0}, \"15\": {\"Li\": 1.0}, \"16\": {\"Li\": 1.0}, \"17\": {\"Li\": 1.0}, \"18\": {\"Li\": 1.0}, \"19\": {\"Li\": 1.0}, \"20\": {\"Li\": 1.0}, \"21\": {\"Li\": 1.0}, \"22\": {\"Li\": 1.0}, \"23\": {\"Li\": 1.0}, \"24\": {\"P\": 1.0}, \"25\": {\"P\": 1.0}, \"26\": {\"P\": 1.0}, \"27\": {\"P\": 1.0}, \"28\": {\"S\": 1.0}, \"29\": {\"S\": 1.0}, \"30\": {\"S\": 1.0}, \"31\": {\"S\": 1.0}, \"32\": {\"S\": 1.0}, \"33\": {\"S\": 1.0}, \"34\": {\"S\": 1.0}, \"35\": {\"S\": 1.0}, \"36\": {\"S\": 1.0}, \"37\": {\"S\": 1.0}, \"38\": {\"S\": 1.0}, \"39\": {\"S\": 1.0}, \"40\": {\"S\": 1.0}, \"41\": {\"S\": 1.0}, \"42\": {\"S\": 1.0}, \"43\": {\"S\": 1.0}, \"44\": {\"S\": 1.0}, \"45\": {\"S\": 1.0}, \"46\": {\"S\": 1.0}, \"47\": {\"S\": 1.0}, \"48\": {\"Cl\": 1.0}, \"49\": {\"Cl\": 1.0}, \"50\": {\"Cl\": 1.0}, \"51\": {\"Cl\": 1.0}}" source=mace_1000K frame_in_traj=100 config_type=Li6PS5Cl_md_snapshot dft_energy=-13987.509332038537 dft_stress="-1.22665857e-03 -4.09039218e-03 -1.00721890e-03 -3.30536741e-05 -1.59024899e-03 7.96042652e-04" labelled_by=QE-pw.x-PBE-SSSP pbc="T T T"
Li      -2.22899812       5.71483471       4.56972278      -0.93349351       0.44654226      -0.36907723
Li       4.55433786       1.66948077       3.81339472      -0.07169033       0.79020850      -1.03605867
Li       4.66834156       2.43618633      -2.72567387       0.72964874       0.53647507       0.12630904
Li       0.91785075       2.00005306       0.37370055       0.17769177       0.90099374      -0.10677174
Li       3.30808671       5.33098259       1.60755571      -0.86718913      -0.96131465       1.34655486
Li       4.28671001      -7.39462106      10.96714907      -0.23384183      -0.37106264       0.24797699
Li       3.48219180       8.41346696       4.70341901      -0.39218605      -0.47184371       0.49797357
Li       3.07299648      10.35182645       6.84543027      -0.28283986      -0.94892116       0.44448769
Li       1.64352259       9.81738699       9.70437882       1.42079932      -0.66438925      -1.15994188
Li       0.33772720       7.63465448       6.68934984       0.44328210      -0.07577015       0.12312884
Li       1.54359052       3.14874752       4.45489976       0.23322297      -0.18754603       0.08757820
Li       2.97911130       7.31175609      10.61350665       0.21942771       0.57780710      -1.06638560
Li       7.76974999       0.53794164      10.41856911      -0.45180042       0.09195859      -0.02916685
Li       8.04911882       1.80175012       5.49543683      -0.80136966       0.56640940       0.05773052
Li      10.59195202       4.32786001      12.52883596       0.40187139      -0.34291471       0.08892083
Li      17.41646756       3.64250352       9.88634129      -0.80099299       0.20662619      -0.60408660
Li       9.42289916       2.49600136       7.58786617       0.67965467       0.36041184       0.31592353
Li       6.81774108       6.45915346      11.56160316      -0.26523783       0.11656070       0.47169381
Li       6.15093389      10.52299813       7.11451598       0.49302986      -0.03536038       0.64506819
Li       6.50023032       8.87698748       4.27296131       1.38900892      -1.29819164      -0.88169632
Li      11.07807788      10.43713055       2.43219684      -0.34944943       1.32260272      -1.35354955
Li       8.94767662       7.92943645       0.52715738      -0.14520537      -0.49319981       0.47356146
Li      13.75069521       5.32803772      -2.91557109      -0.35210589       0.78596233       0.03504362
Li      10.34035456       6.86521229       2.96553824      -0.28945608       0.59559605       0.30493541
P        4.53650730      -0.19459231       0.42737551       2.00281686       1.42000896      -0.55067399
P        5.12875382       4.99522428       4.96650529       0.83879541      -1.15499765      -2.57789602
P       -0.07993698       0.13672920       5.04059256       1.55492580       1.11384148      -0.14479810
P       -0.39673260       5.13552576      -0.53406388       4.28310254      -0.46915999      -1.49739403
S        1.00802151       4.25041869       8.46769112      -0.77460705      -0.53594337      -0.21270376
S        9.09113184       3.75082301       0.55416963      -0.48197411      -2.52062521       2.58121120
S        3.65174765       1.05573232       9.16581804      -0.41414944      -0.29787284       0.26406849
S        5.75757371       1.01892924       1.57979876      -0.39394725       1.10272275       0.52497993
S        2.36762899       2.84047052       2.06210824      -0.59848468       0.22060991       0.42750864
S        1.24156083       9.24570241       3.99979755       0.39537293      -2.00706946       1.28579404
S        8.93356748       9.52262169       6.28376118      -1.03701204      -0.36201261       0.32885361
S        4.41340661       6.54788821       3.51014429      -0.21705561      -1.13477618       0.55847934
S        5.84252054       5.96245295       6.46631170       0.06785707       0.96579428       1.67494798
S        2.59289089       7.99987132       7.53589640      -0.18729432       0.14367273       0.13935019
S        6.66585556       3.86514596       4.07442158      -0.21129454       0.25026373      -0.50394419
S        3.97625241       3.26075766       5.44461814      -1.44377393       1.22487226       0.76004252
S        9.36864687       1.40983412       3.62038876      -0.03546991      -0.25656910       0.44533229
S        1.22661533       1.31169793       6.26317437      -1.13075934       0.48332497      -0.33700272
S        7.11732024       2.53574860       7.87500340      -0.19819477      -1.31476420      -0.47763203
S        6.15769466       9.05145060       9.93567443      -0.82656647      -1.19757666      -0.88841230
S        2.98546119       9.43891563       1.56910625       0.36282122      -0.94639813      -0.50779339
S        8.45401920       6.07623276       8.92186705      -1.92096707       2.28062764      -0.90993526
S        1.00023815       6.17197617       0.63634154      -0.50847267       0.89955315       1.54850679
S        8.10682453       7.65595045       2.97545275      -0.03939290      -0.30682465      -0.88950322
Cl      -0.25341514      -0.43205087       0.23723084      -0.86999780       1.04009479       0.22400351
Cl      -0.19581295       5.30792915       4.81076167       1.53925724      -0.37926806      -0.22373688
Cl       5.06713619      -0.11015894       4.96303660      -0.63129273       0.34302553       1.27287039
Cl       4.90264504       5.11463462       0.29197072       0.92497904      -0.05219519      -0.97467487
52
Lattice="10.279498 0.0 0.0 0.0 10.279498 0.0 0.0 0.0 10.279498" Properties=species:S:1:pos:R:3:dft_forces:R:3 spacegroup="_JSON {\"number\": 1, \"setting\": 1}" unit_cell=conventional occupancy="_JSON {\"0\": {\"Li\": 1.0}, \"1\": {\"Li\": 1.0}, \"2\": {\"Li\": 1.0}, \"3\": {\"Li\": 1.0}, \"4\": {\"Li\": 1.0}, \"5\": {\"Li\": 1.0}, \"6\": {\"Li\": 1.0}, \"7\": {\"Li\": 1.0}, \"8\": {\"Li\": 1.0}, \"9\": {\"Li\": 1.0}, \"10\": {\"Li\": 1.0}, \"11\": {\"Li\": 1.0}, \"12\": {\"Li\": 1.0}, \"13\": {\"Li\": 1.0}, \"14\": {\"Li\": 1.0}, \"15\": {\"Li\": 1.0}, \"16\": {\"Li\": 1.0}, \"17\": {\"Li\": 1.0}, \"18\": {\"Li\": 1.0}, \"19\": {\"Li\": 1.0}, \"20\": {\"Li\": 1.0}, \"21\": {\"Li\": 1.0}, \"22\": {\"Li\": 1.0}, \"23\": {\"Li\": 1.0}, \"24\": {\"P\": 1.0}, \"25\": {\"P\": 1.0}, \"26\": {\"P\": 1.0}, \"27\": {\"P\": 1.0}, \"28\": {\"S\": 1.0}, \"29\": {\"S\": 1.0}, \"30\": {\"S\": 1.0}, \"31\": {\"S\": 1.0}, \"32\": {\"S\": 1.0}, \"33\": {\"S\": 1.0}, \"34\": {\"S\": 1.0}, \"35\": {\"S\": 1.0}, \"36\": {\"S\": 1.0}, \"37\": {\"S\": 1.0}, \"38\": {\"S\": 1.0}, \"39\": {\"S\": 1.0}, \"40\": {\"S\": 1.0}, \"41\": {\"S\": 1.0}, \"42\": {\"S\": 1.0}, \"43\": {\"S\": 1.0}, \"44\": {\"S\": 1.0}, \"45\": {\"S\": 1.0}, \"46\": {\"S\": 1.0}, \"47\": {\"S\": 1.0}, \"48\": {\"Cl\": 1.0}, \"49\": {\"Cl\": 1.0}, \"50\": {\"Cl\": 1.0}, \"51\": {\"Cl\": 1.0}}" source=mace_600K frame_in_traj=200 config_type=Li6PS5Cl_md_snapshot dft_energy=-13993.024172728718 dft_stress="6.06718552e-03 4.12711848e-03 5.08200240e-03 1.96210282e-03 5.96710634e-03 2.17603355e-03" labelled_by=QE-pw.x-PBE-SSSP pbc="T T T"
Li       2.97696013       0.73653386       3.31336271       0.00233019      -0.26030568       0.01317922
Li      -2.18637236       1.76560002       9.74249928       0.43691450       0.18598100      -0.17234464
Li       2.55031766       4.91231364       1.82075497       0.41797833       0.04442506       0.09438880
Li       2.11850725       3.35111917       5.27044626       0.26806810      -0.24256121      -0.66553442
Li       0.28865594       1.72764881       2.27363147       0.67015418       0.52764359      -0.54606220
Li       4.57496533       2.80108507       1.32309040       0.27069860       0.05847923       0.07134246
Li       0.51457449       7.92785668       9.36981561       0.79666069       1.07718552      -0.41321407
Li       7.05036654       5.47883525      12.34194952      -0.27495094      -0.38131491       0.36803799
Li       1.13944739       5.50954650       7.21215578       0.38211889       0.04640713       0.23611957
Li       2.74663506      10.13337082       8.24532773      -0.29311476      -0.40263527      -0.25854216
Li       3.49920768       7.15507246      10.01234720       0.06195664      -0.24081132      -0.20258750
Li       4.61688393       8.22318925       6.74589542       0.51517065      -0.29221076      -0.06235748
Li       7.19352984       0.33340289       7.19084622       0.46242473      -1.28021268      -0.32366744
Li       1.89084322       1.94193986      10.24283918       0.08363619       0.45932398       0.40698686
Li      12.05458882      -2.62507566       5.53177100       0.43465013       0.19588618       0.13397196
Li       7.36493754       2.57688402       5.23499983       0.71114451      -0.07794633      -0.34545136
Li       7.79380794       4.75903236       8.20485103      -0.51396404      -0.50117974      -0.24468058
Li      10.02557552       2.91369647       6.86433231      -0.11848543      -0.10404997       0.24114402
Li       5.95513435       8.91248995       3.29799242      -0.71650346       0.26411606      -0.41060132
Li       7.64154883       7.80972805       4.92119770       0.40332458      -0.02652016      -0.15528949
Li       5.49972941       2.06537051      -3.45376847      -0.84381806       0.55001450       0.26831107
Li       9.84211139       7.04878607       2.75928321       0.24145898       0.06793215       0.15358330
Li       6.94002327       7.57397353       0.28040153      -0.09538201       0.02095629      -0.16856204
Li       8.80267960       9.88815666       2.15307875      -0.19165903      -0.19693725      -0.53533196
P        5.30971452      -0.01749359      -0.17477108       0.15166963       0.67410057       2.11522934
P        4.94792790       5.40113265       5.10216061       1.06173885      -1.42924976       1.08758049
P        0.09475288       0.13108350       5.14829313      -0.89337196      -0.35596229      -0.22966045
P       -0.22592786       5.47988847      -0.21203285       0.71620881      -3.33734178       0.33613420
S        0.85097445       3.97506194       9.06093924       0.59930075       0.51287157      -0.33957588
S        8.68543136       4.19570496       0.65329669      -0.37131846       0.98434659       0.65913932
S        4.17042911       1.57571357       9.29321923       0.46427181      -0.84640485      -0.51305387
S        6.71435424       0.95096645       1.15928521      -1.09518942      -0.10580784      -0.35468702
S        2.44984102       2.71986686       2.34525139      -0.28490214      -0.48048570       0.04974622
S        1.13938737       9.27367744       3.79354898       0.30579184      -0.23276248      -0.32430584
S        9.22017257       9.08180099       6.29728349       0.49560687       0.78989020      -0.28890715
S        3.82171156       6.75255783       4.08136216      -0.08950396      -0.16624984       0.01780000
S        6.43194555       6.36061132       6.21632792      -0.48049367       0.60756762       0.62813284
S        2.69069764       7.63557422       7.82123041      -0.90346200       0.39337930       0.08818267
S        6.15160499       4.05316024       4.10404749      -0.32806119       0.43081739      -1.81012502
S        4.01628873       4.04453554       6.42479037      -0.51284972       0.79802774      -0.02727401
S        8.98830215       1.21764045       3.73548997       0.47250037      -0.05043502       2.15657885
S        1.57081238       1.16059574       6.30870988      -1.19401542      -0.08840378      -0.65121646
S        7.72679361       2.37612297       7.47169343       0.27006096       0.97525234       0.16445830
S        6.43854268       9.11780074       8.85982872      -0.53934545      -0.11244874      -0.42470022
S        4.09782189       9.08933912       1.10120191       0.56833618       0.44288306      -0.41159351
S        9.23706261       6.54741573       8.61761658      -0.94353727       1.14525342      -0.79109502
S        1.06728338       6.63855385       0.96954768      -0.37974962      -0.20301251       0.07230816
S        7.77215039       7.85497586       2.37738271      -0.05719136      -0.64129741       0.62038122
Cl       0.08460260       0.54449448      -0.13028498      -0.18279181      -0.36891911       0.39133707
Cl       0.18960129       4.46706591       5.07764352      -0.05687409       0.60381021       0.53202089
Cl       5.34951028      -0.05581767       5.49310339       0.10630072       0.05119195      -0.15961588
Cl       4.88082249       5.08421457       0.65119686      -0.00994220       0.51772325      -0.07605735
52
Lattice="10.279498 0.0 0.0 0.0 10.279498 0.0 0.0 0.0 10.279498" Properties=species:S:1:pos:R:3:dft_forces:R:3 spacegroup="_JSON {\"number\": 1, \"setting\": 1}" unit_cell=conventional occupancy="_JSON {\"0\": {\"Li\": 1.0}, \"1\": {\"Li\": 1.0}, \"2\": {\"Li\": 1.0}, \"3\": {\"Li\": 1.0}, \"4\": {\"Li\": 1.0}, \"5\": {\"Li\": 1.0}, \"6\": {\"Li\": 1.0}, \"7\": {\"Li\": 1.0}, \"8\": {\"Li\": 1.0}, \"9\": {\"Li\": 1.0}, \"10\": {\"Li\": 1.0}, \"11\": {\"Li\": 1.0}, \"12\": {\"Li\": 1.0}, \"13\": {\"Li\": 1.0}, \"14\": {\"Li\": 1.0}, \"15\": {\"Li\": 1.0}, \"16\": {\"Li\": 1.0}, \"17\": {\"Li\": 1.0}, \"18\": {\"Li\": 1.0}, \"19\": {\"Li\": 1.0}, \"20\": {\"Li\": 1.0}, \"21\": {\"Li\": 1.0}, \"22\": {\"Li\": 1.0}, \"23\": {\"Li\": 1.0}, \"24\": {\"P\": 1.0}, \"25\": {\"P\": 1.0}, \"26\": {\"P\": 1.0}, \"27\": {\"P\": 1.0}, \"28\": {\"S\": 1.0}, \"29\": {\"S\": 1.0}, \"30\": {\"S\": 1.0}, \"31\": {\"S\": 1.0}, \"32\": {\"S\": 1.0}, \"33\": {\"S\": 1.0}, \"34\": {\"S\": 1.0}, \"35\": {\"S\": 1.0}, \"36\": {\"S\": 1.0}, \"37\": {\"S\": 1.0}, \"38\": {\"S\": 1.0}, \"39\": {\"S\": 1.0}, \"40\": {\"S\": 1.0}, \"41\": {\"S\": 1.0}, \"42\": {\"S\": 1.0}, \"43\": {\"S\": 1.0}, \"44\": {\"S\": 1.0}, \"45\": {\"S\": 1.0}, \"46\": {\"S\": 1.0}, \"47\": {\"S\": 1.0}, \"48\": {\"Cl\": 1.0}, \"49\": {\"Cl\": 1.0}, \"50\": {\"Cl\": 1.0}, \"51\": {\"Cl\": 1.0}}" source=mace_600K frame_in_traj=300 config_type=Li6PS5Cl_md_snapshot dft_energy=-13993.588423222564 dft_stress="8.50489399e-03 3.44125474e-03 4.64036859e-03 1.46629771e-03 -2.19715117e-03 -3.21538797e-03" labelled_by=QE-pw.x-PBE-SSSP pbc="T T T"
Li       2.55469054       0.15951571       2.78001369      -0.02774555      -0.05975989       0.34149186
Li      -2.41548018       1.80450398      10.14800708       0.32048210       0.52241705      -0.45697579
Li       3.50168338       4.21922068       2.17894869       0.12660729       1.20710799      -0.43773031
Li       1.32438866       3.57815937       5.16108165       0.75981395      -1.01485607      -0.25970379
Li       0.30992047       2.90213411       2.32826309      -0.06678389      -0.34764966       0.02257866
Li       5.23404251       1.93668757       3.34626240      -0.66397891       0.17570842       0.44254496
Li       0.49703414       7.57263965       6.45869415      -0.45895580       0.41453691      -0.15478787
Li       9.98743849       7.27075788      12.96473128       0.08763014       0.00813600      -0.04932867
Li       1.86327256       5.49959018       7.30120135       0.40392931      -0.02253598       0.29209506
Li       3.26273479      10.31656630       7.10118184      -0.21319587      -0.36009868      -0.02793606
Li       1.17058566       8.09067563       9.54031262       0.25317241      -0.31841416      -0.16730580
Li       4.62110525       7.55321755       8.45708732      -0.00505633      -0.37404512      -0.11443440
Li       7.27777302       1.94466120       5.78436014       0.24730156      -0.15693397       0.33053614
Li       2.39205095       1.42765583      10.72211787       0.04376686       0.48457864      -0.29236837
Li      13.72464336      -1.86633880       5.00831651      -0.60048963      -0.81330755       0.35284071
Li       8.50523021       4.82518285       6.59696361      -0.08879510      -0.11001853       0.00710293
Li       7.52115668       4.89405052       8.98681629      -0.64181343      -0.50402672       0.42140072
Li       9.65954669       1.21461707       7.99711775       0.06785990       0.19411855      -0.09247127
Li       6.73494247       5.31414568       1.78635535       0.15537536       0.40696192       0.12224927
Li       7.01315463       8.09378516       4.67763666       0.26688822       0.29021533      -0.13025337
Li       5.04386391       3.44893484      -2.20425971       0.73131481      -0.03170247       0.60607586
Li       7.80662999      10.04190143       2.10973045       0.46138446       0.23537061       0.23254523
Li       8.23280133       8.53208224      -0.11994274       0.16761459      -0.44426580       0.26036868
Li       5.35162030       8.13270068       2.17929507       0.06142777      -0.27048468      -0.05710574
P        5.09669881       0.06229998      -0.08018177      -0.70392562       1.86610899      -1.47161923
P        5.27219813       5.08279933       5.20458751       1.14596793       1.43758760      -0.54998005
P       -0.01702455       0.09353116       5.10767924       0.62551392      -1.39434293       0.30359818
P        0.24597908       4.95059901      -0.22533544      -1.40072466       0.55886270       0.06169465
S        1.18028890       3.52264652       9.00584977      -0.02677444       0.03627749      -0.35287542
S        9.01318650       4.15289931       1.04188897       0.24039300      -0.09896125       0.04460093
S        4.02246550       1.48230126       8.79811786       0.35659375      -1.23006615       1.68758393
S        6.11322454       1.24556385       1.32793402       0.00441793      -0.34103524      -0.36360232
S        2.58532073       2.38340868       2.72845327      -0.24069896      -0.34538220       0.09249749
S        1.19170190       8.94174048       3.93929299      -0.50155126      -0.13658703       0.74032602
S        8.89882762       9.55367591       6.45032799       0.54259121      -0.44483196      -0.48822755
S        4.56793093       6.12797166       3.61130881      -1.18535826       0.17976613      -1.14433708
S        6.27513115       6.55982074       6.21271766       0.36863937      -0.42026918       1.26492285
S        2.44237066       7.82534269       7.52473885       0.48330055       0.34076450       0.06333321
S        6.66956873       3.83026035       4.41321843       0.42242762      -0.92611856      -0.72432913
S        3.90199567       4.14538100       6.24540136      -1.50672662      -0.66286948       0.45938260
S        9.21259737       0.98709045       3.70056817      -0.89855865       1.65820804      -0.80615346
S        1.27218970       1.24897186       6.17497894      -0.10167762       0.41990228       0.15406641
S        7.84654043       2.79322978       7.91464567      -0.52312462       0.35728615      -0.18035646
S        6.37324692       9.34215381       8.96989213      -0.55515105      -0.16324371       0.45136230
S        3.54757169       9.34409284       0.86117713       0.37331749      -0.46197582      -0.00296243
S        9.20853649       6.33483095       8.83705176       1.62137982       0.16218493       0.31284078
S        1.62729747       6.01147110       0.83093681      -0.56368094       0.59110536       0.24017086
S        7.68108284       7.82475688       2.33105049      -0.16119043      -0.33313192      -0.18640524
Cl      -0.57066396       0.32413027       0.15744359       0.07845207      -0.44634762      -0.23386754
Cl       0.30369077       5.43462544       5.44251941      -0.45959317       0.30108364      -0.06406649
Cl       4.86056642      -0.26484689       5.33964364       0.55828111       0.49819340      -0.55693180
Cl       5.10778441       5.35723780      -0.30559560       0.61970631      -0.11322084       0.05790536
52
Lattice="10.279498 0.0 0.0 0.0 10.279498 0.0 0.0 0.0 10.279498" Properties=species:S:1:pos:R:3:dft_forces:R:3 spacegroup="_JSON {\"number\": 1, \"setting\": 1}" unit_cell=conventional occupancy="_JSON {\"0\": {\"Li\": 1.0}, \"1\": {\"Li\": 1.0}, \"2\": {\"Li\": 1.0}, \"3\": {\"Li\": 1.0}, \"4\": {\"Li\": 1.0}, \"5\": {\"Li\": 1.0}, \"6\": {\"Li\": 1.0}, \"7\": {\"Li\": 1.0}, \"8\": {\"Li\": 1.0}, \"9\": {\"Li\": 1.0}, \"10\": {\"Li\": 1.0}, \"11\": {\"Li\": 1.0}, \"12\": {\"Li\": 1.0}, \"13\": {\"Li\": 1.0}, \"14\": {\"Li\": 1.0}, \"15\": {\"Li\": 1.0}, \"16\": {\"Li\": 1.0}, \"17\": {\"Li\": 1.0}, \"18\": {\"Li\": 1.0}, \"19\": {\"Li\": 1.0}, \"20\": {\"Li\": 1.0}, \"21\": {\"Li\": 1.0}, \"22\": {\"Li\": 1.0}, \"23\": {\"Li\": 1.0}, \"24\": {\"P\": 1.0}, \"25\": {\"P\": 1.0}, \"26\": {\"P\": 1.0}, \"27\": {\"P\": 1.0}, \"28\": {\"S\": 1.0}, \"29\": {\"S\": 1.0}, \"30\": {\"S\": 1.0}, \"31\": {\"S\": 1.0}, \"32\": {\"S\": 1.0}, \"33\": {\"S\": 1.0}, \"34\": {\"S\": 1.0}, \"35\": {\"S\": 1.0}, \"36\": {\"S\": 1.0}, \"37\": {\"S\": 1.0}, \"38\": {\"S\": 1.0}, \"39\": {\"S\": 1.0}, \"40\": {\"S\": 1.0}, \"41\": {\"S\": 1.0}, \"42\": {\"S\": 1.0}, \"43\": {\"S\": 1.0}, \"44\": {\"S\": 1.0}, \"45\": {\"S\": 1.0}, \"46\": {\"S\": 1.0}, \"47\": {\"S\": 1.0}, \"48\": {\"Cl\": 1.0}, \"49\": {\"Cl\": 1.0}, \"50\": {\"Cl\": 1.0}, \"51\": {\"Cl\": 1.0}}" source=mace_600K frame_in_traj=400 config_type=Li6PS5Cl_md_snapshot dft_energy=-13992.797159581909 dft_stress="5.60994303e-04 -7.30853462e-04 -5.60076145e-04 6.26826204e-03 -2.59012263e-03 6.20582732e-03" labelled_by=QE-pw.x-PBE-SSSP pbc="T T T"
Li       2.96602903       0.74207001       4.04730249      -0.14526759       0.27549396      -0.25224759
Li      -2.54610382       3.89082436       9.52426963      -0.18305303      -0.03500454       0.33194562
Li       2.12398564       4.57987854       3.90226686       0.23572311       0.26950355      -0.09629424
Li       0.69676808       2.24398502       2.96736937      -0.98217709       0.20003671       0.00323265
Li       2.15882768       0.81513347       0.83594442       0.41897592       0.38357028      -0.06379807
Li       5.38039017       2.24058465       2.73307534      -0.61427048       0.69755469       0.04765540
Li       1.35544009       9.86836026       7.78935308       0.52055017      -0.20347299      -0.18920748
Li       9.01034556       9.91358329      12.44661291      -0.21295676      -0.36322926      -0.10802413
Li       0.45636549       7.83747779       9.40563080       0.71343793      -0.49039011      -0.22305220
Li       4.47365298       8.25358311       6.31900404      -0.61678837      -0.20618782       0.15370415
Li       4.15206182       7.56654818      10.06205840      -0.07603960       0.02727452      -0.28070250
Li       2.48864323       5.28414569       7.54969313      -0.14660405       0.56962251      -0.58658664
Li       6.77349663       2.44394958       5.56963203       0.12916168       0.07318208      -1.39956355
Li       2.98093077       4.48184496      10.47590341       0.18114296      -0.53138635       0.58184424
Li      11.03833230      -2.49083507       5.76508393       0.21644832      -0.44743648      -0.20419804
Li       8.97727316       0.59002362       8.01446119       0.09359638      -0.08595815       0.15987788
Li       9.47915470       3.40035756       7.19059106       0.29868608       0.05122897      -0.21932358
Li       5.52513221       0.88416977       7.45235103       0.23813455      -0.38470542       0.07035155
Li       9.17633452       6.09639314       2.84333439       0.35291630      -0.59252384       0.27200523
Li       7.76028878       8.09217127       5.00565009      -0.47209002      -0.92463375      -0.78759189
Li       5.46899425       3.80982274      -2.67713229       0.28848832       0.11127040       0.53646299
Li       6.38753091       9.80228837       3.08520213      -0.07103470      -0.34951319      -0.26226101
Li       7.69526573       7.78593579       0.12485883      -0.12330805      -0.35308574       0.24209353
Li       5.70805920       5.73490508       2.46295894       0.43002112       0.54468846      -0.89490614
P        5.18904135       0.04122210       0.13770905       2.97970982      -0.14215038       1.51385320
P        5.03748898       5.24390624       5.11132769       1.36311636      -0.50842022      -2.00209309
P       -0.22118400       0.11584772       5.05882205       0.80554539       1.09964771       0.19243782
P        0.13417369       5.11747265       0.02947412      -0.26834655      -0.11729218       0.27192733
S        1.13969861       3.99523654       8.91564753       0.30325493      -1.00993421      -0.10573765
S        9.23718814       3.86238017       1.28185811       0.93581882       0.98712595      -0.51509866
S        4.22903808       1.25228480       9.30739379      -2.28331778       2.46537271      -1.66793118
S        6.75478509       1.07056129       1.32639139      -0.41351978      -0.73888465      -1.06079268
S        2.70391288       2.80754517       2.37797170       0.54560686      -0.63571811      -0.02621368
S        1.03524864       9.34509022       3.87426283       0.33239247       0.26423973      -0.48651674
S        9.17313586       9.13237767       6.33137773      -0.62135413      -0.70369885       1.37421350
S        3.99975483       6.32295372       3.80186315      -1.09775075       0.76023381      -0.26672727
S        6.08408341       6.51878126       6.30278420       0.29808522      -0.51024545       0.72813153
S        2.34144065       7.65004870       7.32954024       0.51158139       0.59033891       1.06284237
S        6.61030641       4.22074985       3.74933849      -0.77359429      -0.45773967       1.89869258
S        3.80615207       3.76072115       5.85044531       0.44499034       0.33111309       0.99555583
S        8.77056619       1.20466077       3.98834700      -0.57570908       0.45637904      -0.77181123
S        0.73804834       1.46979499       6.30494259       0.47890833      -0.03285381       0.16331982
S        7.44766969       2.19286582       7.58494406      -0.08081723       1.17995072       0.93610704
S        6.04490531       8.96928648       9.11138571       0.12334687      -0.32974809       0.02905449
S        3.97182753       9.56886680       1.51594282      -0.67096305      -1.34585629       0.79890603
S        9.10708643       6.16553405       9.05739746      -0.21697565       0.11318459       0.43725106
S        1.59622375       6.32474236       0.95843182      -0.97153812      -0.20211776      -0.19458366
S        7.73955548       7.75040980       2.51552811      -0.40339015       0.92777075       0.23217370
Cl       0.30061836      -0.25710149      -0.35816208      -0.29228738       0.35430290       0.04863987
Cl       0.32029614       5.72017412       4.97584727      -0.34792554      -0.56765690      -0.40824465
Cl       5.10299282       0.51963667       5.06415952       0.14772607      -0.40609983       0.03127541
Cl       5.67095157       5.21004147      -0.17952691      -0.72628625      -0.05714225      -0.04004673
52
Lattice="10.279498 0.0 0.0 0.0 10.279498 0.0 0.0 0.0 10.279498" Properties=species:S:1:pos:R:3:dft_forces:R:3 spacegroup="_JSON {\"number\": 1, \"setting\": 1}" unit_cell=conventional occupancy="_JSON {\"0\": {\"Li\": 1.0}, \"1\": {\"Li\": 1.0}, \"2\": {\"Li\": 1.0}, \"3\": {\"Li\": 1.0}, \"4\": {\"Li\": 1.0}, \"5\": {\"Li\": 1.0}, \"6\": {\"Li\": 1.0}, \"7\": {\"Li\": 1.0}, \"8\": {\"Li\": 1.0}, \"9\": {\"Li\": 1.0}, \"10\": {\"Li\": 1.0}, \"11\": {\"Li\": 1.0}, \"12\": {\"Li\": 1.0}, \"13\": {\"Li\": 1.0}, \"14\": {\"Li\": 1.0}, \"15\": {\"Li\": 1.0}, \"16\": {\"Li\": 1.0}, \"17\": {\"Li\": 1.0}, \"18\": {\"Li\": 1.0}, \"19\": {\"Li\": 1.0}, \"20\": {\"Li\": 1.0}, \"21\": {\"Li\": 1.0}, \"22\": {\"Li\": 1.0}, \"23\": {\"Li\": 1.0}, \"24\": {\"P\": 1.0}, \"25\": {\"P\": 1.0}, \"26\": {\"P\": 1.0}, \"27\": {\"P\": 1.0}, \"28\": {\"S\": 1.0}, \"29\": {\"S\": 1.0}, \"30\": {\"S\": 1.0}, \"31\": {\"S\": 1.0}, \"32\": {\"S\": 1.0}, \"33\": {\"S\": 1.0}, \"34\": {\"S\": 1.0}, \"35\": {\"S\": 1.0}, \"36\": {\"S\": 1.0}, \"37\": {\"S\": 1.0}, \"38\": {\"S\": 1.0}, \"39\": {\"S\": 1.0}, \"40\": {\"S\": 1.0}, \"41\": {\"S\": 1.0}, \"42\": {\"S\": 1.0}, \"43\": {\"S\": 1.0}, \"44\": {\"S\": 1.0}, \"45\": {\"S\": 1.0}, \"46\": {\"S\": 1.0}, \"47\": {\"S\": 1.0}, \"48\": {\"Cl\": 1.0}, \"49\": {\"Cl\": 1.0}, \"50\": {\"Cl\": 1.0}, \"51\": {\"Cl\": 1.0}}" source=mace_600K frame_in_traj=500 config_type=Li6PS5Cl_md_snapshot dft_energy=-13993.681695683039 dft_stress="7.43615853e-03 6.95779841e-03 5.15912764e-03 -9.74165230e-04 -3.15846220e-04 -2.01994675e-03" labelled_by=QE-pw.x-PBE-SSSP pbc="T T T"
Li       3.23948975      -0.25452021       2.90950108       0.20188096       0.32964165      -0.59596346
Li      -3.46014600       4.74531268       7.73055572       0.09371260      -0.25674393       0.38070145
Li       2.39164584       3.13358729       4.83007395      -0.21317711       0.28188495       0.81427968
Li      -0.03691038       2.49900427       2.44406395       0.63800305      -0.01684535      -0.04838688
Li       3.11379919       3.86762767       0.48471412       0.05005424      -0.48850934       0.38071790
Li       4.61106494       2.05106975       3.30870922       0.24362591       0.39119566      -0.07534978
Li       4.57358400       7.45709881       8.96727006      -0.10354295       0.14990354       0.17387574
Li       7.74059767       8.90462198      10.73901346       0.28061868       0.02340655       0.22305760
Li       2.81105893      10.46854784       7.79782631      -0.51671820      -0.71341222      -0.34083006
Li       3.70980179       8.44959075       5.46425383       0.01403925      -0.18996879       0.12545132
Li       2.95415671       5.45062895       8.31335373       0.19069384       0.41650277      -0.51430934
Li       0.60782922       8.31577673       9.49604072       0.25290116      -0.01735649      -0.08775869
Li       7.66867569       2.59290059       5.37504075       0.30863368      -0.42075589       0.30939524
Li       1.82203077       5.39306334      13.10047964       0.61200457      -0.72547532       0.55487106
Li      11.17599372      -3.30655319       6.48517582      -0.03178063       0.37448118       0.08678913
Li       8.04443330       0.22558041       8.12900554       0.06674147      -0.17150055      -0.05101943
Li       7.48109372       2.51240867      10.08432920      -0.27926166      -0.52796164      -0.24216141
Li       5.24169389       2.09371370       7.24685380      -0.01657282       0.01684278       0.09761656
Li      10.30280290       7.44409750       3.06394424      -0.60495075       0.40071697       0.20123767
Li       8.18128807       6.16881232       4.49546788       0.12495330       0.25625902      -0.13868942
Li       9.95672280       2.40951724      -2.14063042      -0.20963850      -0.13953068       0.10083944
Li       7.35845622       9.77716017       3.67304163      -0.09796417      -0.56724758      -0.04563682
Li       5.42351271       7.19121434       2.02831699       0.41079801       0.50667804      -0.26633132
Li       7.14679294       4.90353822       1.55656075      -0.06103285       0.71651683       0.28780080
P        5.09969337       0.01189262       0.03328098      -1.70459229      -0.74391090      -0.49675256
P        5.40019587       5.22838995       4.85412590      -2.32422249       1.11773311       2.14947361
P        0.19692015       0.12886792       5.35797296      -1.05677019      -0.00763952      -0.44093185
P       -0.11823773       5.16555499      -0.46247686       0.88573398      -1.47808041       3.87604857
S        1.34543377       3.88519140       9.08608474      -0.15636704       0.46954617      -0.08948416
S        8.98653632       3.79979482       0.83137067       0.47990309       0.41013106      -0.58499307
S        3.83256142       1.35594627       9.39433002       0.41230904       0.87619211       0.23797282
S        6.26258533       0.88072432       1.42591505       0.50817931       0.42644523       0.28357545
S        2.48012094       3.04759370       2.68489664       0.17569428      -0.45115327      -0.79690468
S        1.54608717       9.27357218       4.10279000      -1.04505265      -0.02488442       1.09416895
S        9.16182124       9.15105117       6.44024605       1.44740355       0.28773190      -0.70106270
S        4.19871711       6.54955241       3.80013617      -0.14992283      -0.33587272      -0.27987641
S        6.43580747       6.39193018       6.18014886       0.91757452       0.19993181      -0.61295999
S        2.78199588       7.96983937       7.58327318      -0.65748713      -0.29233546       0.30145156
S        6.42789817       3.85141586       3.80517211       0.32644911      -0.12589484      -0.67628446
S        4.00753852       4.38333136       6.25071735       0.46775051      -1.12839958      -0.52705507
S        9.08328598       1.06842727       4.01043150       0.75875697       0.23335255       0.29782219
S        1.16327709       1.68550892       6.43302533       0.00942746      -1.20170071      -0.41801587
S        7.55907909       2.46778195       7.77173079      -0.11871220       0.42248984      -0.37795062
S        6.02095135       9.26676802       8.80893754       1.24578510       0.04586977       0.10832649
S        3.84633644       8.80922112       0.86377974       0.39567684       0.32526538       0.46686863
S        9.14292447       6.20395665       8.58594595      -0.87657546       1.12151828      -1.39667235
S        0.66334409       6.36060163       1.15630307       0.52979406       0.09202081      -2.17736159
S        7.91147494       7.53910557       2.47651912      -0.72626440      -0.12694333       0.05218928
Cl      -0.56676441       0.09218085      -0.33740995      -0.21337945      -0.26333059      -0.10034604
Cl       0.43101382       5.42633706       4.84248535      -0.42514142       0.31373115      -0.28589099
Cl       5.37181805       0.34720626       5.06796490      -0.51468395       0.09906846      -0.28531043
Cl       5.03350945       5.23260833      -0.29962092       0.05471230       0.11039623       0.04975805
52
Lattice="10.279498 0.0 0.0 0.0 10.279498 0.0 0.0 0.0 10.279498" Properties=species:S:1:pos:R:3:dft_forces:R:3 spacegroup="_JSON {\"number\": 1, \"setting\": 1}" unit_cell=conventional occupancy="_JSON {\"0\": {\"Li\": 1.0}, \"1\": {\"Li\": 1.0}, \"2\": {\"Li\": 1.0}, \"3\": {\"Li\": 1.0}, \"4\": {\"Li\": 1.0}, \"5\": {\"Li\": 1.0}, \"6\": {\"Li\": 1.0}, \"7\": {\"Li\": 1.0}, \"8\": {\"Li\": 1.0}, \"9\": {\"Li\": 1.0}, \"10\": {\"Li\": 1.0}, \"11\": {\"Li\": 1.0}, \"12\": {\"Li\": 1.0}, \"13\": {\"Li\": 1.0}, \"14\": {\"Li\": 1.0}, \"15\": {\"Li\": 1.0}, \"16\": {\"Li\": 1.0}, \"17\": {\"Li\": 1.0}, \"18\": {\"Li\": 1.0}, \"19\": {\"Li\": 1.0}, \"20\": {\"Li\": 1.0}, \"21\": {\"Li\": 1.0}, \"22\": {\"Li\": 1.0}, \"23\": {\"Li\": 1.0}, \"24\": {\"P\": 1.0}, \"25\": {\"P\": 1.0}, \"26\": {\"P\": 1.0}, \"27\": {\"P\": 1.0}, \"28\": {\"S\": 1.0}, \"29\": {\"S\": 1.0}, \"30\": {\"S\": 1.0}, \"31\": {\"S\": 1.0}, \"32\": {\"S\": 1.0}, \"33\": {\"S\": 1.0}, \"34\": {\"S\": 1.0}, \"35\": {\"S\": 1.0}, \"36\": {\"S\": 1.0}, \"37\": {\"S\": 1.0}, \"38\": {\"S\": 1.0}, \"39\": {\"S\": 1.0}, \"40\": {\"S\": 1.0}, \"41\": {\"S\": 1.0}, \"42\": {\"S\": 1.0}, \"43\": {\"S\": 1.0}, \"44\": {\"S\": 1.0}, \"45\": {\"S\": 1.0}, \"46\": {\"S\": 1.0}, \"47\": {\"S\": 1.0}, \"48\": {\"Cl\": 1.0}, \"49\": {\"Cl\": 1.0}, \"50\": {\"Cl\": 1.0}, \"51\": {\"Cl\": 1.0}}" source=mace_600K frame_in_traj=600 config_type=Li6PS5Cl_md_snapshot dft_energy=-13990.692352509175 dft_stress="7.88697391e-03 -1.70869132e-03 4.64863201e-03 2.41016374e-03 -4.04815693e-03 2.23112300e-04" labelled_by=QE-pw.x-PBE-SSSP pbc="T T T"
Li       4.56479175       1.48053004       2.93887866      -0.14343979      -0.01231558      -0.44345050
Li      -3.14467852       4.90840038       8.42631083       0.34217166       0.22674070      -0.19648962
Li       2.11244194       2.41280899       4.52186216       0.03968806      -0.20019355       0.09015110
Li       0.73355830       1.85090655       1.38953590      -0.20383269      -0.42019719      -0.21846458
Li       3.29666947       3.28568120      -0.14895136      -0.44605349      -0.74240732       0.26009691
Li       3.38459295       4.79807240       2.06554215      -0.04146315       0.81843176      -0.12076446
Li       3.86584860       9.03355931       6.63488986      -0.48594647      -0.30173155       0.54482730
Li      10.21753200       8.44546320      12.45117814       0.16236002      -0.25426873       0.32669902
Li       5.40880944      12.49398697       6.71250167      -0.56359353       0.18650885       0.42712040
Li       1.64722244       6.34712052       5.06358963       0.33438611       0.36440168       0.34825078
Li       0.06677209       5.96352905       7.26636416       0.40289315       0.33613909       0.80310078
Li       1.48354144       9.80905111       8.12382537      -0.05907289      -0.51960324       0.28929667
Li       8.48017406       3.17784594       5.18506612      -0.12769718      -0.30015830       0.01534640
Li       0.79207085       4.11902498      13.09789866      -0.23986079       0.32586007      -0.12124345
Li      14.06009477      -4.43779176       7.80317298      -0.61703056       0.03148393      -0.14223343
Li       7.55152600       0.42998657       6.56392552      -0.03157212       0.10569368       0.65971422
Li       7.84275950       1.04891083       9.66288677       0.36252683      -0.41873243      -0.29582522
Li       6.12777614       2.97871542       9.86388390      -0.35147366       0.11145861      -1.01556827
Li       6.55629733       5.02405704       1.50936145       0.51835445       0.55686418       0.46323591
Li       8.01174665       6.57355461       4.81644612       0.07412928       0.54721997      -0.54435422
Li       9.83258376       2.75374114      -1.75033860       0.65796612      -0.08576635       0.10572582
Li       8.04630387      10.11730463       3.85688520      -0.21445829      -0.60012196      -0.29887892
Li       4.93053056       8.73983002       3.68684430       0.23083621      -0.39325768      -0.91271437
Li       8.39771934       8.56952377       0.14659690      -0.49613884      -0.02906092       0.34106069
P        5.10622034       0.09810160       0.01018399      -4.59673625      -1.58402246      -1.33128276
P        5.15377862       5.03780488       4.97919557      -2.19852717      -1.96744568       0.25919368
P        0.40445594      -0.23953793       4.97690647      -0.75257038       1.18802372       1.03995441
P        0.04290127       5.26749021       0.23504047       2.52047377       0.04330715       0.46622276
S        1.44153434       4.30361110       9.20808323      -1.57304977       0.23395393      -0.08909875
S        9.21512719       3.83742158       1.13532753      -0.70934679      -0.84429089       0.47520208
S        3.81716584       1.28803435       8.90562504       0.57311509      -0.35445048       0.53748706
S        6.22214938       1.33703925       0.95502951       2.16676659       1.47048692       2.83602449
S        2.63892671       2.77203429       2.23260302       0.15916414      -0.44075136       0.26015039
S        1.59407506       8.70270609       4.08332735       0.21226616       0.40232365      -0.39994178
S        9.15266999       9.14817855       6.05732174      -0.25487628      -0.40667781      -0.47101504
S        3.88665712       6.15199937       3.90712109       0.49677518       1.95406823      -1.03778517
S        5.97601648       5.96732351       6.56922455       0.69892200       0.76832276       0.03161866
S        1.95579717       7.27073446       7.27566486       0.99121915       0.94920604      -0.00365971
S        6.47428480       4.00556593       3.74310655      -0.00040443       0.20061161       0.60918921
S        3.46148988       3.86202845       5.83143422       2.00055814      -0.23919641       0.54504944
S        9.88875799       1.22896418       3.62332263      -0.07796639      -0.07395573       0.13669656
S        1.18000443       1.09538606       6.41288925       0.62905638      -0.24594067      -0.53286936
S        7.64200688       2.63556072       7.96142273      -0.57025140       0.04202648      -0.78154568
S        6.00693470       9.29994086       8.85172667       1.34707859      -0.86129308      -0.24104992
S        3.83794648       9.38743217       1.43184068       1.15889518       0.86933009      -0.77317314
S        9.12447836       6.49040664       9.49134254      -0.86358933       0.21641978      -1.07725829
S        1.23143399       6.28774284       1.70176477      -0.73725252      -0.51988297      -0.72550875
S        7.92337128       8.18720278       2.56243319      -0.29164383      -0.32478432       0.07621290
Cl      -0.25079716       0.17035279      -0.33241706      -0.06922901       0.04446286       0.09935000
Cl      -0.50637915       4.99778112       5.31987188       0.19772580       0.11722328      -0.35635927
Cl       5.75762189       0.50393227       4.97141368      -0.22000184      -0.26335964       0.06621568
Cl       4.89337567       4.90504915      -0.12806610       0.65975124       0.29329705       0.01734132
52
Lattice="10.279498 0.0 0.0 0.0 10.279498 0.0 0.0 0.0 10.279498" Properties=species:S:1:pos:R:3:dft_forces:R:3 spacegroup="_JSON {\"number\": 1, \"setting\": 1}" unit_cell=conventional occupancy="_JSON {\"0\": {\"Li\": 1.0}, \"1\": {\"Li\": 1.0}, \"2\": {\"Li\": 1.0}, \"3\": {\"Li\": 1.0}, \"4\": {\"Li\": 1.0}, \"5\": {\"Li\": 1.0}, \"6\": {\"Li\": 1.0}, \"7\": {\"Li\": 1.0}, \"8\": {\"Li\": 1.0}, \"9\": {\"Li\": 1.0}, \"10\": {\"Li\": 1.0}, \"11\": {\"Li\": 1.0}, \"12\": {\"Li\": 1.0}, \"13\": {\"Li\": 1.0}, \"14\": {\"Li\": 1.0}, \"15\": {\"Li\": 1.0}, \"16\": {\"Li\": 1.0}, \"17\": {\"Li\": 1.0}, \"18\": {\"Li\": 1.0}, \"19\": {\"Li\": 1.0}, \"20\": {\"Li\": 1.0}, \"21\": {\"Li\": 1.0}, \"22\": {\"Li\": 1.0}, \"23\": {\"Li\": 1.0}, \"24\": {\"P\": 1.0}, \"25\": {\"P\": 1.0}, \"26\": {\"P\": 1.0}, \"27\": {\"P\": 1.0}, \"28\": {\"S\": 1.0}, \"29\": {\"S\": 1.0}, \"30\": {\"S\": 1.0}, \"31\": {\"S\": 1.0}, \"32\": {\"S\": 1.0}, \"33\": {\"S\": 1.0}, \"34\": {\"S\": 1.0}, \"35\": {\"S\": 1.0}, \"36\": {\"S\": 1.0}, \"37\": {\"S\": 1.0}, \"38\": {\"S\": 1.0}, \"39\": {\"S\": 1.0}, \"40\": {\"S\": 1.0}, \"41\": {\"S\": 1.0}, \"42\": {\"S\": 1.0}, \"43\": {\"S\": 1.0}, \"44\": {\"S\": 1.0}, \"45\": {\"S\": 1.0}, \"46\": {\"S\": 1.0}, \"47\": {\"S\": 1.0}, \"48\": {\"Cl\": 1.0}, \"49\": {\"Cl\": 1.0}, \"50\": {\"Cl\": 1.0}, \"51\": {\"Cl\": 1.0}}" source=mace_600K frame_in_traj=700 config_type=Li6PS5Cl_md_snapshot dft_energy=-13992.948322220705 dft_stress="3.03910171e-04 3.48624446e-03 1.90701337e-03 -1.78673472e-03 -3.84340778e-03 -3.07123722e-03" labelled_by=QE-pw.x-PBE-SSSP pbc="T T T"
Li       4.81545404       2.62321644       3.34970144       0.28018262      -0.19750443      -0.26102533
Li      -7.05246361       4.00794889      10.72816449      -0.03574682      -0.22393846       0.12557808
Li       2.66842519       0.36537951       2.52511031       0.65118433      -0.00280919      -0.46833390
Li       1.02052473       1.98172364       1.14451848      -0.32232840      -0.49403979      -0.51571444
Li       2.46862405      -0.71973004      -4.55748293      -0.03801299       0.40416945      -0.22851759
Li      -0.02575322       4.45947954       2.79097257       0.55283423       0.08609725       0.10588626
Li       4.48720132       8.25913731       7.10454271       0.77965644      -0.04003928       0.19949292
Li       8.40292789       6.66392661      14.71811147      -0.36121480       0.06400556      -0.26814523
Li       5.28226007      12.43212026       7.25033748      -0.16531551      -0.45150217       0.24490272
Li       7.07679143       7.15547061      -0.28588074      -0.47708542       0.48100404       0.60481731
Li       2.34424363       6.73712229       4.96877673      -0.34624866       0.00160951       0.29673102
Li       2.05420411       9.73049833       8.69156534      -0.04375143       0.38098709       0.82382928
Li       9.80804908       2.23585001       8.21155667       0.05704944       0.31398235       0.00319202
Li       2.38674464       2.32365033      14.95811798      -0.06431152       0.19452169       0.12926427
Li      13.27526204      -4.53645610       8.45919650       0.02003635       0.12600822      -0.23589846
Li       8.26508316       2.34310227       5.57775598      -0.33878758       0.53157712       0.43528725
Li       6.90976564       3.51842140      10.26402137      -0.08320938      -0.37715667      -0.15806551
Li       7.84303249       4.91530198       7.78360262      -0.56027295      -0.58168664      -0.76666311
Li       5.77151388       6.26126880       2.43156121       0.41027093       0.15668714      -0.54461313
Li      10.25541614       7.38768458       6.85844903      -0.07629440      -0.11335711       0.38811471
Li       7.77866257       0.33885242      -2.09951830       0.56749595       0.53539392      -0.47514372
Li      10.15536352       7.95125037       1.79998428       0.08696705      -0.07937844      -0.32803291
Li       6.63100997       8.97800054       3.99293192       0.01971496      -0.00655348      -0.29918256
Li       8.12335884      10.07046795       1.57583169      -0.09985188       0.30298471      -0.10379955
P        4.98211082       0.16587073       0.05729511      -1.07355153      -0.52349974       0.92985206
P        5.34452771       5.28999993       5.48053505      -0.36639866       0.94244378       1.42197534
P       -0.40962314      -0.08336124       4.83852215       0.14420341       0.86344560      -2.04249386
P        0.11316084       4.80698780      -0.22105527       0.81652914       1.01379343      -1.35446640
S        1.48100434       3.75440079       8.73844928      -1.22054458       0.79614569       0.51948265
S        9.50308823       3.42815101       0.87756833      -1.92533101      -1.33833761       0.37486376
S        3.72980076       1.35963748       9.28244088      -0.84588086      -0.00994014      -0.71678140
S        5.96832493       1.43497627       1.26847832       1.48132026       0.52832365       0.76784119
S        2.68046218       2.71314947       2.33089943       0.15761428       0.00267292       1.43666611
S        1.11236414       9.30118886       3.52676555      -0.97396576      -0.48540499       1.71145096
S        8.52386372       9.05728559       5.85825481       0.18411824      -0.93021870       0.10530801
S        4.55502484       6.80553874       4.29122662      -0.94922686       0.05783774      -0.08971067
S        6.40201727       6.50901163       6.76111761       0.21895617       0.32152699       0.55329883
S        2.24929914       7.94212633       7.36765559      -0.09237279      -0.83318423      -0.72966596
S        6.66946481       4.35713119       4.37695465       0.84415230      -1.32324935      -1.56768362
S        4.12625262       4.03278620       6.58843618      -0.62296364       1.07593083      -0.86028238
S        8.78729121       1.24616650       3.64854255       0.05899756      -0.82918823      -0.41233501
S        0.55608060       1.15231236       6.10133611       1.03348525       0.37260838       1.04532056
S        7.41309342       2.63324527       7.92053857       1.09951478      -0.18893700      -0.11752281
S        6.20133394       9.50403503       9.00433364      -0.34748948      -1.61783992      -0.12318772
S        4.01687656       9.00628049       1.23626675       0.16597397       0.61524185      -0.51105046
S        8.94066091       6.11396903       9.17218834       1.76116813      -0.38466017       0.02675516
S        1.31424684       5.84838318       0.99306446       0.41546276       0.80691810       0.43880169
S        7.82684856       7.83527964       2.07287871      -0.43967921      -0.60508136       1.00494241
Cl       0.16917074      -0.58826342       0.17969320      -0.08820272       0.75982038      -0.36791663
Cl      -0.16436762       5.16989317       5.01704658       0.29337804       0.49800597       0.05462643
Cl       4.61939014       0.69166870       5.40181611      -0.34328958      -0.31986195      -0.32760225
Cl       5.12949031       5.46396996       0.06751712       0.20106207      -0.27637508       0.12555391
52
Lattice="10.279498 0.0 0.0 0.0 10.279498 0.0 0.0 0.0 10.279498" Properties=species:S:1:pos:R:3:dft_forces:R:3 spacegroup="_JSON {\"number\": 1, \"setting\": 1}" unit_cell=conventional occupancy="_JSON {\"0\": {\"Li\": 1.0}, \"1\": {\"Li\": 1.0}, \"2\": {\"Li\": 1.0}, \"3\": {\"Li\": 1.0}, \"4\": {\"Li\": 1.0}, \"5\": {\"Li\": 1.0}, \"6\": {\"Li\": 1.0}, \"7\": {\"Li\": 1.0}, \"8\": {\"Li\": 1.0}, \"9\": {\"Li\": 1.0}, \"10\": {\"Li\": 1.0}, \"11\": {\"Li\": 1.0}, \"12\": {\"Li\": 1.0}, \"13\": {\"Li\": 1.0}, \"14\": {\"Li\": 1.0}, \"15\": {\"Li\": 1.0}, \"16\": {\"Li\": 1.0}, \"17\": {\"Li\": 1.0}, \"18\": {\"Li\": 1.0}, \"19\": {\"Li\": 1.0}, \"20\": {\"Li\": 1.0}, \"21\": {\"Li\": 1.0}, \"22\": {\"Li\": 1.0}, \"23\": {\"Li\": 1.0}, \"24\": {\"P\": 1.0}, \"25\": {\"P\": 1.0}, \"26\": {\"P\": 1.0}, \"27\": {\"P\": 1.0}, \"28\": {\"S\": 1.0}, \"29\": {\"S\": 1.0}, \"30\": {\"S\": 1.0}, \"31\": {\"S\": 1.0}, \"32\": {\"S\": 1.0}, \"33\": {\"S\": 1.0}, \"34\": {\"S\": 1.0}, \"35\": {\"S\": 1.0}, \"36\": {\"S\": 1.0}, \"37\": {\"S\": 1.0}, \"38\": {\"S\": 1.0}, \"39\": {\"S\": 1.0}, \"40\": {\"S\": 1.0}, \"41\": {\"S\": 1.0}, \"42\": {\"S\": 1.0}, \"43\": {\"S\": 1.0}, \"44\": {\"S\": 1.0}, \"45\": {\"S\": 1.0}, \"46\": {\"S\": 1.0}, \"47\": {\"S\": 1.0}, \"48\": {\"Cl\": 1.0}, \"49\": {\"Cl\": 1.0}, \"50\": {\"Cl\": 1.0}, \"51\": {\"Cl\": 1.0}}" source=mace_600K frame_in_traj=800 config_type=Li6PS5Cl_md_snapshot dft_energy=-13992.69162363101 dft_stress="3.43115501e-03 -8.25607328e-03 1.97036624e-03 -5.57688935e-03 -3.68915730e-03 -3.74424675e-03" labelled_by=QE-pw.x-PBE-SSSP pbc="T T T"
Li       2.59691451       2.58985769       4.85226554       0.46730597      -0.24285638       0.55769619
Li      -7.34016355       3.03410433      10.46100953       0.25147163      -0.19723369       0.48827280
Li       3.18844577      -0.59593610       2.93382555      -0.01406933       0.87252777       0.50335078
Li       5.07404198       2.90156869       1.95596849      -0.27750945       0.33903055       0.27232071
Li       4.05434990      -2.15305518      -4.24796370      -0.23940801      -1.31084815       0.05053195
Li       0.62537490       1.60212187       2.48058164       0.38137147       0.27259247      -0.16689725
Li       3.34888296       6.44805757       9.88696564      -0.21672986       0.23395162      -0.23786124
Li       8.26002206       5.63232938      13.56059444       0.02099614      -0.31071319      -0.10427546
Li       7.62645626      12.86924346       5.45167637      -0.41715712       0.42406413      -0.47631717
Li       7.15862020       7.48976237       0.21065657      -0.06696618       0.13947335       0.55462115
Li       0.02767871       7.67778599       5.56312358       0.66975206      -0.21592099      -0.29980811
Li       0.32548493       8.66455697       8.58587146       0.52226561      -0.34109771      -0.65998753
Li      10.16439617       3.57262752       7.19659044      -0.27896701      -0.39824845      -0.02045364
Li       1.89544931       4.82094416      13.79277799       0.19950963      -0.06396262      -0.46383601
Li      12.23485825      -4.61339465       6.72125786       0.47735744       0.24600341       0.16875873
Li       7.32803455       4.94033492       8.09988228      -0.20919652       0.52206070      -0.45386733
Li       7.65673218       3.29119896      10.23699491      -0.38581228      -0.42129325      -0.41167321
Li       5.36379297       2.60258617       7.78699352      -0.36503623       0.27457788      -0.14003899
Li       5.29634471       8.10104892       2.86239618       0.44366802      -0.13528296      -0.06191011
Li      13.93838152       9.58215617       7.90304274       0.01900097      -0.22518519      -0.11873483
Li       7.99429077       0.69926288      -2.15578563       0.28761131      -1.32033244       0.42255798
Li      10.01997494       8.30727167       1.13408230      -0.24683645      -0.33361375       0.59768224
Li       7.46080762       8.69774124       4.79694354      -0.35030869      -0.17600512       0.16892971
Li       8.06011528      10.40523868       2.16401033       0.05880062      -0.91948203      -0.12737939
P        5.26291000       0.02478822      -0.20783871      -3.08463088      -0.02307951      -1.27363477
P        5.18973813       5.55945788       4.87659224      -0.98920006      -2.70702993       1.75142185
P       -0.04548210       0.26552279       5.08740513       0.85042682      -1.30400259      -0.47895667
P        0.02536639       5.08365463       0.10542959      -1.65065774      -1.07668879       0.91872175
S        1.14679509       3.81597114       9.23017080      -0.51962483       0.53509568      -0.72338090
S        9.10359871       4.00362700       1.51121208       0.66021404      -0.18448359      -0.30948369
S        3.69387958       1.16891539       8.94460917       1.56301655       0.72131656       1.03031868
S        6.39880860       1.16565038       0.87214771       1.40419642       1.68846736       1.10230520
S        2.90436588       2.53619050       2.70754549      -0.77305950       0.05588987      -0.91850372
S        0.88391677       9.48237355       3.40306555      -0.50573316       0.05184012       1.26001204
S        9.19669915       9.35937078       6.46770038      -0.73283408       0.01299076      -0.40446512
S        3.69650956       6.54996067       4.03931973      -0.67792431       1.23382073      -1.26594589
S        6.26088575       6.59891757       6.22268757       0.49179598       0.25734506      -0.00192319
S        2.45287707       7.79569081       7.65347360      -0.88153100      -0.81013712       0.18810448
S        6.20582161       4.25307780       3.68068543       0.80775525       0.11185301       0.23748817
S        3.85958164       4.22837579       6.14319313       0.70982965      -0.01461261      -0.03651069
S        8.89299525       1.30120527       4.00246782      -0.62954746       1.04796211      -0.20426849
S        1.24343196       1.18572749       6.28396125       0.38460952       0.91899789      -0.01479130
S        7.86036931       2.75807006       7.65019495      -0.39240948       1.10797448       0.44208345
S        6.15639206       9.14681126       8.72789251       0.84023240      -0.32910635      -0.71289080
S        4.04501340       9.09396874       0.86404255      -0.12240996      -1.10382190       0.75029650
S        8.90473565       6.29987112       9.40150359       0.64331469      -0.06778559      -0.72312276
S        1.16219262       6.13784243       1.32060819       1.35102087       1.43432564       0.38340367
S        7.78111736       7.75225246       2.68628788      -0.31872140       1.11541603      -0.82163252
Cl      -0.55516146      -0.17691954      -0.31295102      -0.21865253       0.24293094       0.60203152
Cl      -0.11011946       5.48235499       5.18418042       0.38461184      -0.59542018       0.19778854
Cl       4.91075333      -0.64123399       4.89239681       0.53700652       1.03434400      -0.78493851
Cl       5.01284220       4.64820743       0.02357853       0.13779236      -0.06660854      -0.23120902
52
Lattice="10.279498 0.0 0.0 0.0 10.279498 0.0 0.0 0.0 10.279498" Properties=species:S:1:pos:R:3:dft_forces:R:3 spacegroup="_JSON {\"number\": 1, \"setting\": 1}" unit_cell=conventional occupancy="_JSON {\"0\": {\"Li\": 1.0}, \"1\": {\"Li\": 1.0}, \"2\": {\"Li\": 1.0}, \"3\": {\"Li\": 1.0}, \"4\": {\"Li\": 1.0}, \"5\": {\"Li\": 1.0}, \"6\": {\"Li\": 1.0}, \"7\": {\"Li\": 1.0}, \"8\": {\"Li\": 1.0}, \"9\": {\"Li\": 1.0}, \"10\": {\"Li\": 1.0}, \"11\": {\"Li\": 1.0}, \"12\": {\"Li\": 1.0}, \"13\": {\"Li\": 1.0}, \"14\": {\"Li\": 1.0}, \"15\": {\"Li\": 1.0}, \"16\": {\"Li\": 1.0}, \"17\": {\"Li\": 1.0}, \"18\": {\"Li\": 1.0}, \"19\": {\"Li\": 1.0}, \"20\": {\"Li\": 1.0}, \"21\": {\"Li\": 1.0}, \"22\": {\"Li\": 1.0}, \"23\": {\"Li\": 1.0}, \"24\": {\"P\": 1.0}, \"25\": {\"P\": 1.0}, \"26\": {\"P\": 1.0}, \"27\": {\"P\": 1.0}, \"28\": {\"S\": 1.0}, \"29\": {\"S\": 1.0}, \"30\": {\"S\": 1.0}, \"31\": {\"S\": 1.0}, \"32\": {\"S\": 1.0}, \"33\": {\"S\": 1.0}, \"34\": {\"S\": 1.0}, \"35\": {\"S\": 1.0}, \"36\": {\"S\": 1.0}, \"37\": {\"S\": 1.0}, \"38\": {\"S\": 1.0}, \"39\": {\"S\": 1.0}, \"40\": {\"S\": 1.0}, \"41\": {\"S\": 1.0}, \"42\": {\"S\": 1.0}, \"43\": {\"S\": 1.0}, \"44\": {\"S\": 1.0}, \"45\": {\"S\": 1.0}, \"46\": {\"S\": 1.0}, \"47\": {\"S\": 1.0}, \"48\": {\"Cl\": 1.0}, \"49\": {\"Cl\": 1.0}, \"50\": {\"Cl\": 1.0}, \"51\": {\"Cl\": 1.0}}" source=mace_600K frame_in_traj=900 config_type=Li6PS5Cl_md_snapshot dft_energy=-13993.090646874138 dft_stress="6.26826204e-03 4.09222849e-03 1.33298123e-02 2.13655277e-03 -6.07820341e-04 5.46303781e-04" labelled_by=QE-pw.x-PBE-SSSP pbc="T T T"
Li       0.62034110       2.90255420       4.57446562       0.40671330       0.02050738      -0.39354771
Li      -7.99162036       0.13833005      12.52241102      -0.10103741       0.23916582      -0.08132631
Li       4.62807535       1.86258278       3.00268527      -0.34337083       0.19871311       0.12309234
Li       3.68040999       2.79373437       0.06791307      -0.30524368       0.63609375       0.96583362
Li       4.31971358      -3.47871084      -2.83430354       0.64375924      -0.53285522      -0.54210862
Li       0.04296225       2.26546633       1.22125036       0.15129605      -0.26717104       0.11230142
Li       2.72745581       6.67839638       9.68953553      -0.06308407      -0.05100812      -0.03672821
Li       9.28662898       6.17384602      13.34740957       0.28431850      -0.39980320       0.36283279
Li       8.24036013      15.48129846       7.53155702       0.01406959      -0.86814635       0.16339926
Li       5.86027817       6.09821794       1.79899137       0.24378043      -0.06349751       0.20968195
Li       3.04342952       9.66954400       5.97062179      -0.39746684       0.10578084       0.13518038
Li       0.32275749       6.76498807       7.85221402       0.37017946       0.25081214      -0.40984901
Li      10.48867588       2.78117689       7.85937929      -0.54069811      -0.26085564      -0.32101071
Li       2.32048728       4.90960417      12.44023204       0.46672824      -0.35689997       0.29137052
Li      12.11930292      -3.19272198       4.95194393       0.32904541      -0.41387845       0.60852458
Li       7.10953155       3.23045411      11.23559281      -0.42616472      -0.01334942      -0.44589948
Li       8.13460095       0.53744112       8.18310145       0.19633201      -0.01637947       0.06022423
Li       5.57549649       2.64468477       7.68947032       0.28830782       0.42364170      -0.27004811
Li       7.35473882       8.79948468       5.20694982       0.05374377      -0.31492954      -0.14565582
Li      12.40085907       9.43721088       9.09497787      -0.22139461       0.32466837      -0.08699096
Li       7.84503272       3.56097606      -4.77068654      -0.06068292      -0.08416378      -0.22818541
Li       7.83643097       8.52426249       0.28350863       0.24192769      -0.18588613       0.57337323
Li       9.42211618       9.24806169       2.50409852       0.01245185      -0.20033753      -0.08407404
Li       5.49457348       8.80474797       3.06795113       0.29686574      -0.41535040      -0.62438597
P        4.93696766      -0.07139091      -0.34986213       2.75387800       0.61052130       1.24260722
P        5.27743241       5.13918769       4.76808664      -1.10197327      -0.73041518       1.45678191
P       -0.00781574       0.14382604       5.15429353       1.79387616      -0.58388236       0.75180213
P       -0.11009503       5.52111131       0.20273227      -0.18029167      -1.11347485       0.47131329
S        1.07593063       4.66180026       8.99797639       0.49856544       0.17868678       0.79325577
S        9.09658709       4.31556124       1.57199551       0.52105385      -0.09543138      -0.57509818
S        3.92179407       1.25003574       8.76737784      -0.38496279      -0.67942070      -0.52237386
S        6.10491825       0.97388280       1.31930086      -1.07579507      -0.62957678      -1.09033055
S        2.17283731       2.57100814       2.13957218       0.60211405      -0.36583070       0.08667986
S        1.35726287       9.12422563       4.06627424      -0.85921665       0.57987015      -0.40335389
S        9.40904513       9.38166550       6.63691204      -1.04775591      -0.78883425      -0.07441544
S        4.14078257       6.44953088       3.56210325       0.04741808      -0.23376753       0.34584063
S        6.58729064       5.99884889       6.18534358      -0.19172433       0.88075710      -1.31007373
S        2.36570999       7.91223259       7.37251310      -0.08624688      -0.48110508       0.60436145
S        6.14207825       3.72500929       3.39952653      -0.09019764       0.71020297       1.37494858
S        3.94691933       4.37866421       6.33449243       0.55317927      -0.07701354      -1.40870691
S        9.04081306       0.96573882       3.79916595      -0.11125883       0.72082188       0.23539426
S        1.41941378       1.30463714       6.21311223      -0.54855849       0.49599382      -0.60519243
S        8.02534392       2.73176603       7.70674837      -0.11796170       0.53963367       0.00720089
S        6.46201331       9.24445279       8.87187535      -1.21564483       0.09492127      -0.18216009
S        3.78608094       8.86314262       0.66386345      -0.59885106      -0.03035007       0.07916941
S        8.80695597       6.49672114       9.38559491      -0.79645834       1.24606869      -0.20916490
S        0.99942442       6.72078442       1.47729136       0.08789342       0.10035041      -0.61548353
S        7.63673891       7.56002256       2.80421445      -0.65354331       1.27124648      -0.44491706
Cl      -0.43098089       0.07077661       0.14909976       0.18420309      -0.08481144       0.15678330
Cl      -0.25436151       4.98567890       5.31255124       0.06855615       0.14149449      -0.14603635
Cl       4.92579479      -0.40769285       4.85697563       0.57683779       0.51591396       0.11112462
Cl       5.00241749       4.83335213      -0.01697077      -0.16751071       0.05255926      -0.06595959
52
Lattice="10.279498 0.0 0.0 0.0 10.279498 0.0 0.0 0.0 10.279498" Properties=species:S:1:pos:R:3:dft_forces:R:3 spacegroup="_JSON {\"number\": 1, \"setting\": 1}" unit_cell=conventional occupancy="_JSON {\"0\": {\"Li\": 1.0}, \"1\": {\"Li\": 1.0}, \"2\": {\"Li\": 1.0}, \"3\": {\"Li\": 1.0}, \"4\": {\"Li\": 1.0}, \"5\": {\"Li\": 1.0}, \"6\": {\"Li\": 1.0}, \"7\": {\"Li\": 1.0}, \"8\": {\"Li\": 1.0}, \"9\": {\"Li\": 1.0}, \"10\": {\"Li\": 1.0}, \"11\": {\"Li\": 1.0}, \"12\": {\"Li\": 1.0}, \"13\": {\"Li\": 1.0}, \"14\": {\"Li\": 1.0}, \"15\": {\"Li\": 1.0}, \"16\": {\"Li\": 1.0}, \"17\": {\"Li\": 1.0}, \"18\": {\"Li\": 1.0}, \"19\": {\"Li\": 1.0}, \"20\": {\"Li\": 1.0}, \"21\": {\"Li\": 1.0}, \"22\": {\"Li\": 1.0}, \"23\": {\"Li\": 1.0}, \"24\": {\"P\": 1.0}, \"25\": {\"P\": 1.0}, \"26\": {\"P\": 1.0}, \"27\": {\"P\": 1.0}, \"28\": {\"S\": 1.0}, \"29\": {\"S\": 1.0}, \"30\": {\"S\": 1.0}, \"31\": {\"S\": 1.0}, \"32\": {\"S\": 1.0}, \"33\": {\"S\": 1.0}, \"34\": {\"S\": 1.0}, \"35\": {\"S\": 1.0}, \"36\": {\"S\": 1.0}, \"37\": {\"S\": 1.0}, \"38\": {\"S\": 1.0}, \"39\": {\"S\": 1.0}, \"40\": {\"S\": 1.0}, \"41\": {\"S\": 1.0}, \"42\": {\"S\": 1.0}, \"43\": {\"S\": 1.0}, \"44\": {\"S\": 1.0}, \"45\": {\"S\": 1.0}, \"46\": {\"S\": 1.0}, \"47\": {\"S\": 1.0}, \"48\": {\"Cl\": 1.0}, \"49\": {\"Cl\": 1.0}, \"50\": {\"Cl\": 1.0}, \"51\": {\"Cl\": 1.0}}" source=mace_800K frame_in_traj=100 config_type=Li6PS5Cl_md_snapshot dft_energy=-13992.486088293428 dft_stress="6.32426965e-03 -3.10337274e-04 3.33842109e-03 2.69938339e-04 8.77758680e-04 -3.77362780e-04" labelled_by=QE-pw.x-PBE-SSSP pbc="T T T"
Li       5.07073402       2.91163473       2.18885459      -0.48350752      -0.38358134      -0.43709165
Li       2.56546399       0.56349704       2.31875434       0.09770372      -1.01572999      -0.00172650
Li       0.53852604       2.04397983       1.46562303      -0.08726761       0.39023690       0.25307111
Li       1.57465008       3.13889822       4.79863150      -0.14235401       0.36242399      -0.04660047
Li       4.24757661       1.90112805       4.60862154      -0.19152327       0.00372656      -0.14657396
Li       2.81697546       5.03294356       1.94967752      -0.38846978      -0.32001261      -0.20263430
Li       5.35089389       7.94458330       7.34125277      -0.24978601       0.04805186      -0.76010243
Li      -3.08231605      13.88371551       9.83747062       0.29383544      -0.24036884       0.13464662
Li       4.36680226       7.55595564       9.46557386      -0.62509509       0.04067331       0.67197247
Li       3.18071788      10.28671131       7.30791210      -0.02165614      -0.18217731      -0.30151018
Li       0.39260068       8.75671296       8.86579118       0.31868232      -0.20930374      -0.10256105
Li       1.87412337       7.34295106       5.26367662      -0.04328375       0.76164509      -0.19682952
Li      10.14349824      -2.84691967       2.64872072      -0.19210357       0.00665222       0.44984355
Li       8.01231504       2.37034853       5.21124699      -0.38871069       0.27966943       0.66693182
Li       6.64238152       0.22639095       7.12104496       0.27652677       0.65385133       0.16877030
Li       5.20374453       3.60317751       8.08368535      -0.54645275      -0.50307181      -0.18078583
Li       7.69062181      -4.98722210      13.08605675       0.22944268      -0.17836077      -0.03452272
Li       9.60333501       2.23438449       8.49237335      -0.69239628      -0.70721663      -0.10896309
Li      13.00212346       5.90219325       7.01479697      -0.15416643      -1.01389139       0.37345453
Li       8.51053628       7.38228164       5.23019231      -0.03980710      -0.19166417      -0.45789239
Li       7.31757519       4.87406018       7.64572297       0.47011181      -0.28826772      -0.63901787
Li       5.58688385       8.98373446       3.04944174       0.23228452      -0.18719277       0.12465891
Li       7.70999049       7.21139732       0.38426118      -0.27608300       0.31864221       0.56489348
Li       8.53465556      10.01292973       1.91624270      -0.07436710      -0.07977902       0.16816969
P        5.27531913       0.01849488       0.10937084      -0.31999641      -0.52426747       1.46921679
P        4.94960955       5.02110727       4.73220757       0.04739932       0.26991981       2.06150717
P        0.08357195       0.31193178       5.18363938       0.06674635      -0.71511429      -1.91532607
P       -0.09051724       5.01246784      -0.33982751      -0.79903176      -0.36678998       0.12926581
S        0.77454862       3.87243366       8.53388652       1.55140956       0.69818486       0.18581157
S        9.14729640       3.80862573       0.97261978      -0.03505082      -0.47436211       0.79012443
S        4.17671546       1.07213600       9.14763307      -0.36745872       1.34304916      -0.53020569
S        6.49120727       1.04792369       1.44390420      -0.47499820       0.39790110      -0.13061847
S        2.62486959       2.64066882       2.82829945       0.62105048       0.94451969      -0.74624572
S        1.34521219       9.41548340       3.96455675      -0.55372126      -0.62259623      -0.04389182
S        8.92220268       9.54026266       6.20142177       0.49248735       0.13195313       0.46929652
S        3.68006091       6.33397481       3.69559462       1.39225596      -0.74005656       0.50734473
S        6.36869701       6.09733067       6.02428482      -1.24534853       0.33787998      -0.55172171
S        2.80755657       8.05419294       7.46461386       0.36799300      -0.34315768       0.49602931
S        6.25193935       3.56200282       4.03628381      -0.12334610       0.72078255      -1.29522484
S        3.78901769       3.73629897       6.01632116      -0.10127241       1.48082661       0.18913215
S        9.40438014       1.52633552       3.69333650       0.51132608      -0.30644490       0.48731327
S        1.41270142       1.33586830       6.30916513      -0.51361719       0.51606257       0.81971397
S        7.28734002       2.60959579       7.44697129       0.20892759      -0.00343602       0.86692868
S        6.62858563       9.13516643       9.38222371      -0.05047898      -1.12732923      -0.97833792
S        3.90382374       9.12691213       1.26895100       0.88694292       0.04745614      -0.60024357
S        8.66690772       5.95177476       9.02085043      -1.02985074       1.38784935      -0.92186750
S        0.79361690       6.55459318       0.62231603       1.44641111       0.11327998       0.19732317
S        7.69959851       7.60013097       2.86654295       0.37159177       0.42798635      -0.68460841
Cl      -0.17508352       0.30823311       0.03713831       0.06933057      -0.20180974      -0.08609365
Cl       0.14958042       5.86290150       5.02171396       0.00566903      -0.03466078      -0.11274159
Cl       5.16108190      -0.06011809       5.27641551       0.09370283      -0.29368374       0.18691689
Cl       5.10707012       5.29375417      -0.19591236       0.15937009      -0.42889677      -0.21839824
52
Lattice="10.279498 0.0 0.0 0.0 10.279498 0.0 0.0 0.0 10.279498" Properties=species:S:1:pos:R:3:dft_forces:R:3 spacegroup="_JSON {\"number\": 1, \"setting\": 1}" unit_cell=conventional occupancy="_JSON {\"0\": {\"Li\": 1.0}, \"1\": {\"Li\": 1.0}, \"2\": {\"Li\": 1.0}, \"3\": {\"Li\": 1.0}, \"4\": {\"Li\": 1.0}, \"5\": {\"Li\": 1.0}, \"6\": {\"Li\": 1.0}, \"7\": {\"Li\": 1.0}, \"8\": {\"Li\": 1.0}, \"9\": {\"Li\": 1.0}, \"10\": {\"Li\": 1.0}, \"11\": {\"Li\": 1.0}, \"12\": {\"Li\": 1.0}, \"13\": {\"Li\": 1.0}, \"14\": {\"Li\": 1.0}, \"15\": {\"Li\": 1.0}, \"16\": {\"Li\": 1.0}, \"17\": {\"Li\": 1.0}, \"18\": {\"Li\": 1.0}, \"19\": {\"Li\": 1.0}, \"20\": {\"Li\": 1.0}, \"21\": {\"Li\": 1.0}, \"22\": {\"Li\": 1.0}, \"23\": {\"Li\": 1.0}, \"24\": {\"P\": 1.0}, \"25\": {\"P\": 1.0}, \"26\": {\"P\": 1.0}, \"27\": {\"P\": 1.0}, \"28\": {\"S\": 1.0}, \"29\": {\"S\": 1.0}, \"30\": {\"S\": 1.0}, \"31\": {\"S\": 1.0}, \"32\": {\"S\": 1.0}, \"33\": {\"S\": 1.0}, \"34\": {\"S\": 1.0}, \"35\": {\"S\": 1.0}, \"36\": {\"S\": 1.0}, \"37\": {\"S\": 1.0}, \"38\": {\"S\": 1.0}, \"39\": {\"S\": 1.0}, \"40\": {\"S\": 1.0}, \"41\": {\"S\": 1.0}, \"42\": {\"S\": 1.0}, \"43\": {\"S\": 1.0}, \"44\": {\"S\": 1.0}, \"45\": {\"S\": 1.0}, \"46\": {\"S\": 1.0}, \"47\": {\"S\": 1.0}, \"48\": {\"Cl\": 1.0}, \"49\": {\"Cl\": 1.0}, \"50\": {\"Cl\": 1.0}, \"51\": {\"Cl\": 1.0}}" source=mace_800K frame_in_traj=200 config_type=Li6PS5Cl_md_snapshot dft_energy=-13990.460293147284 dft_stress="-4.80012801e-03 7.28282620e-03 -1.51128743e-03 3.46237237e-03 1.49659691e-04 2.92892279e-03" labelled_by=QE-pw.x-PBE-SSSP pbc="T T T"
Li       4.35183639       2.56267859       2.83625919       1.30172511      -0.07703796       0.25876354
Li       1.95140212       0.44776205       1.79974108       0.07993560      -0.19485388       0.45746790
Li       1.81054547       2.09068179      -0.29809489      -0.08705241       0.26186814       0.32609044
Li       1.66747878       3.43534479       5.43084868       0.14011330      -0.24738846       0.02070304
Li       2.80669534       4.85453752       0.60708957       0.98601163      -0.76727889       0.50998705
Li       0.39788664       4.15184907       2.46873023       0.14637162      -0.34903445      -0.13067580
Li       1.47264538       9.95078318       7.91008592       0.07335512      -0.36115592       0.03250414
Li      -4.61364447      12.36719376       5.96395177      -0.07643530       0.66435223      -0.36846994
Li       2.97328566       7.69870035       5.04183649      -0.25919908       0.52617780       0.78010972
Li       4.44236211       9.48163257       7.81736734       0.16965810      -0.29187086      -0.27165582
Li       2.19290931       8.13475117       9.89212484       0.29940008      -0.02018110       0.00918578
Li       0.14775257       6.57776731       6.76019047       0.55970730       0.33006511       0.19760830
Li       9.85212986      -2.57777119       0.87510299      -1.31189022       0.77880669       0.42807531
Li       8.35251121       3.68730427       5.88674792      -0.58068622      -0.51290603      -0.40488370
Li       7.56315700       0.75100321       9.19193782      -0.31072424       0.11350778      -0.42342958
Li       5.49644526       3.18700670       9.48698995       0.11224665      -0.43013527       0.04067485
Li       5.41552816      -1.70366867      13.24756455       0.63415565      -0.21423614       0.02673047
Li       6.90405788       5.17780160       8.29743380       0.06049343      -0.16718238      -0.59778817
Li      14.06982614       5.43935250       8.13411141      -0.34627360       1.27398727       0.33660754
Li       7.34744172       7.03616533      -0.00903314      -0.39805768      -0.10993909       1.26600194
Li       9.28685659       2.78487479       8.33842989      -0.09764793      -0.42816889      -0.73016682
Li       7.37908929       8.88932322       4.93017844      -0.13397581       0.57333466      -0.26156861
Li       8.53147115      10.19420094       1.68324585      -0.31510875      -0.39195131       0.90177252
Li       8.43386897       6.60175943       4.51167244      -0.20600964       0.44625815      -0.58804009
P        5.04147567      -0.12698851       0.27496672       0.68295005       0.48054947       1.29001219
P        5.46214168       5.47509122       4.92710144       0.41990177       0.64074590      -0.12075880
P        0.05560879      -0.22730623       5.15884745      -3.66267452       2.01581481       2.56119542
P        0.26440435       4.99214587      -0.57724189      -2.22798070      -0.13044286       0.37520443
S        1.63854637       4.15572309       8.41623806      -0.12362610       0.28408479       0.30818939
S        9.43018461       3.28658128       0.24785807       1.04343260       1.74854941      -0.00962544
S        3.95846916       1.10696548       9.26841987       0.19467416      -0.20720315      -0.01415521
S        6.13394311       0.93352321       1.71363111      -0.06296555       0.65610156      -0.84257802
S        2.39348988       2.71725212       2.06510750      -1.11947040       0.81638413      -0.60486513
S        1.38710714       9.55147197       3.95098353       3.29047006      -1.79738906      -1.79749910
S        9.25220272       8.50694911       6.25506391       1.01846461       1.04185882      -0.52522675
S        4.33304809       6.54473176       3.63250510      -0.09291401      -0.03976982      -0.81915321
S        6.59817348       6.79800649       6.07004053       0.17475145      -0.76560484       0.05594078
S        2.64886582       7.97657188       7.62358392      -0.25932918      -0.61496160      -0.03769032
S        6.44648210       3.88366218       4.12132557       0.48062377      -0.05244536      -0.54712432
S        4.20809837       4.60434597       6.18267601      -1.77825362      -1.70866003       0.84436828
S        8.94449164       0.87248657       4.15441089      -0.50745580       0.11971185      -0.17668132
S        0.68380283       1.39023059       6.67817566      -0.10024937      -0.22946890      -0.38585959
S        6.97140383       2.59334556       7.65130708       1.35777310       0.90551734       1.35577304
S        6.42791559       8.97364168       9.59500078      -0.50844388       1.10197481      -1.24879200
S        3.83643092       9.01009712       1.41980298      -1.50418174      -0.37237647      -0.49648928
S        9.08283874       6.44293312       8.79351948       1.15718668      -1.41703600       0.36397231
S        1.12251785       6.23278075       0.88062842       0.35334208      -0.99175445       0.17457276
S        7.68878969       7.92122734       2.44263277       0.87323996      -0.28995487      -0.14319476
Cl       0.31843649      -0.44456549       0.20168863       0.01786351       0.25388281      -0.21685687
Cl      -0.25089448       5.00475842       4.87979605       0.58905670      -0.33628641       0.04904302
Cl       5.17303131       0.02755969       5.84756956      -0.02783348      -0.71839939      -0.70982810
Cl       5.22748989       5.60889212      -0.17106546      -0.11846409      -0.79845917      -0.49749792
52
Lattice="10.279498 0.0 0.0 0.0 10.279498 0.0 0.0 0.0 10.279498" Properties=species:S:1:pos:R:3:dft_forces:R:3 spacegroup="_JSON {\"number\": 1, \"setting\": 1}" unit_cell=conventional occupancy="_JSON {\"0\": {\"Li\": 1.0}, \"1\": {\"Li\": 1.0}, \"2\": {\"Li\": 1.0}, \"3\": {\"Li\": 1.0}, \"4\": {\"Li\": 1.0}, \"5\": {\"Li\": 1.0}, \"6\": {\"Li\": 1.0}, \"7\": {\"Li\": 1.0}, \"8\": {\"Li\": 1.0}, \"9\": {\"Li\": 1.0}, \"10\": {\"Li\": 1.0}, \"11\": {\"Li\": 1.0}, \"12\": {\"Li\": 1.0}, \"13\": {\"Li\": 1.0}, \"14\": {\"Li\": 1.0}, \"15\": {\"Li\": 1.0}, \"16\": {\"Li\": 1.0}, \"17\": {\"Li\": 1.0}, \"18\": {\"Li\": 1.0}, \"19\": {\"Li\": 1.0}, \"20\": {\"Li\": 1.0}, \"21\": {\"Li\": 1.0}, \"22\": {\"Li\": 1.0}, \"23\": {\"Li\": 1.0}, \"24\": {\"P\": 1.0}, \"25\": {\"P\": 1.0}, \"26\": {\"P\": 1.0}, \"27\": {\"P\": 1.0}, \"28\": {\"S\": 1.0}, \"29\": {\"S\": 1.0}, \"30\": {\"S\": 1.0}, \"31\": {\"S\": 1.0}, \"32\": {\"S\": 1.0}, \"33\": {\"S\": 1.0}, \"34\": {\"S\": 1.0}, \"35\": {\"S\": 1.0}, \"36\": {\"S\": 1.0}, \"37\": {\"S\": 1.0}, \"38\": {\"S\": 1.0}, \"39\": {\"S\": 1.0}, \"40\": {\"S\": 1.0}, \"41\": {\"S\": 1.0}, \"42\": {\"S\": 1.0}, \"43\": {\"S\": 1.0}, \"44\": {\"S\": 1.0}, \"45\": {\"S\": 1.0}, \"46\": {\"S\": 1.0}, \"47\": {\"S\": 1.0}, \"48\": {\"Cl\": 1.0}, \"49\": {\"Cl\": 1.0}, \"50\": {\"Cl\": 1.0}, \"51\": {\"Cl\": 1.0}}" source=mace_1000K frame_in_traj=200 config_type=Li6PS5Cl_md_snapshot dft_energy=-13990.429812995933 dft_stress="-5.11138344e-03 3.23834191e-03 -1.32031065e-03 -1.33316486e-03 5.59892514e-03 -5.40794835e-04" labelled_by=QE-pw.x-PBE-SSSP pbc="T T T"
Li      -1.58604835       5.04182671       7.49760954      -0.45264143      -1.01488769      -1.14770908
Li       1.71898798       0.38362322       1.86762369      -0.21755929       0.18098561       0.22909172
Li       5.47850232       1.93369927      -3.45790540      -0.37041549       0.40655749      -0.49156716
Li       3.02189213       2.65279171      -0.16607569      -0.30429109       0.73921736       0.88521282
Li       2.96736108       5.49926936       1.63560625       0.98781681      -0.97740615       0.38981009
Li       4.21100280      -8.96587465      13.40468940       0.58886978       0.33738350       0.18281161
Li       2.27195188       6.27914636       9.00124322      -0.31867564      -0.62273456       0.06824890
Li      -0.78085553      12.34697983       8.24144502      -0.22856156       0.14817653       0.65873103
Li       4.84569594       6.24141514       7.44317969      -1.14410748      -0.21403868       0.67115280
Li       2.97108367       9.37998788       9.08009432      -0.71969805      -0.44100847      -0.28215389
Li       0.04547982       2.95468771       2.26980233       0.89557719      -0.39312862       0.56827088
Li       2.81561151       9.49011883       6.04707095       0.38292134       0.44261335      -0.47995708
Li       6.98428088      -0.24351517       7.80933461       0.12686209       0.89994987      -0.82305743
Li       7.79992153       3.04866969       5.16435996       0.17726882       0.04932404      -0.13395088
Li      11.45836177       2.56601110      15.06234096       0.30818528       0.78602352      -0.50101133
Li      16.92497763       2.99747915       9.63382853      -0.07466484       0.15819124       0.34948902
Li      12.25584422       6.70997331       5.51987455      -0.12362558      -0.73818609      -0.66222670
Li       5.72316390       8.02979403      11.74524568       1.51088589      -1.17761718       0.32639538
Li       6.73988524       7.98153062       4.63636976      -0.32031369       0.33800391       1.07544977
Li       7.95035826      10.02221752       2.00716395      -0.02821554       0.15854939       0.16545409
Li       9.59113827       7.82869699       0.69558608      -0.52747158       0.41534603      -0.18390715
Li       7.34838775       5.24624331       2.59599555       0.42814396       0.57184265      -0.33571511
Li      10.27320009       8.78614464      -2.35325071       0.12377008      -0.23693436       0.12403387
Li       9.98084901       7.13065417       3.20129932      -1.05343676      -0.08156028       1.16719522
P        5.03470440      -0.05781403       0.08151019       3.36000914       2.46178191      -0.24828398
P        4.95936517       5.12609673       4.55533258       0.31490074      -0.99374886       2.01503603
P       -0.16905907       0.01474977       5.21586519      -2.34951829       2.11286007      -0.21890244
P       -0.01872024       5.15322018       0.18729330      -2.85873479      -1.26977838      -2.78351048
S        0.93586788       3.94877591       9.14482088       1.55594550      -0.16061064       0.03005851
S        8.82744388       3.96461537       1.02491159      -0.92296921       0.31766365      -0.14211438
S        4.11923002       1.09377079       8.84477569       0.05186429      -0.83230749       0.00419116
S        6.09999447       1.30089221       1.27690899      -1.02427916       0.04755975       0.19556531
S        2.40181385       2.61236836       2.62511781      -0.47435002      -0.42133747      -0.78919009
S        0.91734440       9.05186738       4.00364889       0.90512473       0.04096744       0.77834389
S        8.50215827       9.39241538       6.22271688       1.28223049      -0.60567503      -0.53583435
S        6.00389393       3.69843351       3.50427434      -0.22339158       0.22583490       0.01691375
S        3.76961311       6.51020660       3.59340488       0.35549615       0.06770949       0.30910291
S        2.26945340       7.79794604       7.39962627       0.46361772       0.56835547       0.96874848
S        6.28644209       6.03460795       5.95062658       1.32759760       0.85527052      -1.56737945
S        3.96862373       4.07407867       6.03973258      -1.08254113      -0.03134818       0.02450930
S        9.24306181       1.38123532       3.69835400      -0.04733915      -0.88279753       1.08838885
S        0.63106238       1.41675583       6.69780880       1.12577989      -2.05497374      -1.49492320
S        7.52150428       2.75176277       7.50054250      -0.21351906      -0.07226960       0.21045508
S        6.72883542       9.19734127       9.75023253      -0.71645769      -1.23125502      -0.05675890
S        3.90204186       8.97805111       1.09691142      -2.83325772       0.10008482       0.21097830
S        9.32709157       6.43431590       8.99026063       0.48996305       1.07198444       1.87792192
S        0.87438902       6.18147345       1.58193364       1.33013194       1.15676168       0.35734709
S        7.63910964       7.73305006       2.75434819       1.15351541      -0.29464482      -1.56188475
Cl       0.15311756      -0.20778822       0.10984779       0.07641601      -0.33124705      -0.11590096
Cl      -0.21842242       4.94524827       4.91356518       0.06998671       0.17949514       0.10198564
Cl       5.09347457       0.00356470       5.12687904      -0.38496279       0.04675371       0.30279033
Cl       4.78165104       4.88553512       0.33541697      -0.37788120       0.19424813      -0.79774466
52
Lattice="10.279498 0.0 0.0 0.0 10.279498 0.0 0.0 0.0 10.279498" Properties=species:S:1:pos:R:3:dft_forces:R:3 spacegroup="_JSON {\"number\": 1, \"setting\": 1}" unit_cell=conventional occupancy="_JSON {\"0\": {\"Li\": 1.0}, \"1\": {\"Li\": 1.0}, \"2\": {\"Li\": 1.0}, \"3\": {\"Li\": 1.0}, \"4\": {\"Li\": 1.0}, \"5\": {\"Li\": 1.0}, \"6\": {\"Li\": 1.0}, \"7\": {\"Li\": 1.0}, \"8\": {\"Li\": 1.0}, \"9\": {\"Li\": 1.0}, \"10\": {\"Li\": 1.0}, \"11\": {\"Li\": 1.0}, \"12\": {\"Li\": 1.0}, \"13\": {\"Li\": 1.0}, \"14\": {\"Li\": 1.0}, \"15\": {\"Li\": 1.0}, \"16\": {\"Li\": 1.0}, \"17\": {\"Li\": 1.0}, \"18\": {\"Li\": 1.0}, \"19\": {\"Li\": 1.0}, \"20\": {\"Li\": 1.0}, \"21\": {\"Li\": 1.0}, \"22\": {\"Li\": 1.0}, \"23\": {\"Li\": 1.0}, \"24\": {\"P\": 1.0}, \"25\": {\"P\": 1.0}, \"26\": {\"P\": 1.0}, \"27\": {\"P\": 1.0}, \"28\": {\"S\": 1.0}, \"29\": {\"S\": 1.0}, \"30\": {\"S\": 1.0}, \"31\": {\"S\": 1.0}, \"32\": {\"S\": 1.0}, \"33\": {\"S\": 1.0}, \"34\": {\"S\": 1.0}, \"35\": {\"S\": 1.0}, \"36\": {\"S\": 1.0}, \"37\": {\"S\": 1.0}, \"38\": {\"S\": 1.0}, \"39\": {\"S\": 1.0}, \"40\": {\"S\": 1.0}, \"41\": {\"S\": 1.0}, \"42\": {\"S\": 1.0}, \"43\": {\"S\": 1.0}, \"44\": {\"S\": 1.0}, \"45\": {\"S\": 1.0}, \"46\": {\"S\": 1.0}, \"47\": {\"S\": 1.0}, \"48\": {\"Cl\": 1.0}, \"49\": {\"Cl\": 1.0}, \"50\": {\"Cl\": 1.0}, \"51\": {\"Cl\": 1.0}}" source=mace_800K frame_in_traj=300 config_type=Li6PS5Cl_md_snapshot dft_energy=-13991.663281760826 dft_stress="6.35365070e-04 3.31913978e-03 1.60218504e-03 1.23951278e-03 1.41947167e-03 1.49476060e-03" labelled_by=QE-pw.x-PBE-SSSP pbc="T T T"
Li       2.05941982       3.21922621       4.77832701       0.38866827       0.23688808      -0.58623672
Li       4.13276777       3.98249858       2.22367998      -0.00828924       0.09741190      -0.00019438
Li       2.13130371       1.65491575      -0.08630315       0.23394725       0.54870144       0.66847114
Li       3.02046522       0.06746795       2.89611680      -0.52701444       1.05660024       0.23916659
Li      -0.13991532       2.78036920       2.86143376       0.58204042      -0.08817675      -0.32291127
Li      -2.15740192       5.69066567       3.18672312       0.26431815       0.02333456      -0.03880952
Li       2.92318350      10.15839517       6.69522461      -0.20121865       0.04895123       0.50317903
Li      -3.68245056      10.68635646       7.37612287       0.17497154       0.04194935       0.35032180
Li       5.12305334       7.07064147       8.91641617      -0.54431154       0.25115230      -0.97426041
Li       2.30640754       5.31320241       7.61762295       0.06961185       0.14478730      -0.03090003
Li       1.79070302       8.62493832       9.45933299       0.41136982      -0.49299798      -0.09773432
Li       0.78956136       7.66379413       6.23654610       0.45232955      -0.42668023      -0.24948571
Li      10.44031147      -2.61959584       1.89965870      -0.14619447      -0.14439033       0.08644255
Li       6.61580964       2.94522368       5.55524798       0.09141840       0.10120273       0.19958728
Li       9.27414741       1.72517529       8.98126335       0.29213568      -0.05968276       0.00459276
Li       7.35147345       3.99865471       9.86996759       0.23133218       0.01267734      -0.29746301
Li       5.41942836      -1.28689919      13.51504792       0.28712923      -0.49769230      -0.09835987
Li       5.35113394       3.04188127       8.61747178       0.48328538       0.60767560      -0.47482593
Li      14.30442928       7.88650804       5.75312485       0.55352791      -0.13269052      -0.50544109
Li       9.01883170       8.21650259      -1.20308040      -0.11540731      -0.05135496       0.00151438
Li       9.50316824       4.07834539       6.94507907      -0.21950973      -0.40282579       0.57789272
Li       8.16951212       9.08882764       4.41252060       0.22345380      -0.13689093       0.21132694
Li       8.09563091       9.41142803       1.21508923      -0.25060980       0.72730312      -0.45349503
Li       5.84665158       6.86108222       1.47543732      -0.04709310      -0.19169939       0.18543464
P        5.36071202       0.02461211      -0.01741563       1.85197769       1.43789279      -0.90991701
P        5.21348762       5.49474047       4.87201003       0.51911807       2.03050635      -0.23931185
P        0.02875203       0.25520412       5.40430868       1.67884423       0.19905121       2.74432584
P       -0.07717341       5.01150649      -0.13045519       1.54063844      -1.53430375       2.44213534
S        0.80175113       3.42622573       9.18746604      -0.08136025      -0.62429701      -1.12817024
S        8.83642799       4.14097718       1.35092807       0.88402600       0.43553742      -0.01574415
S        4.15150820       1.20815293       8.78463536       0.57879080      -1.57075043       0.72688712
S        6.70988702       1.22249929       1.12832454      -1.25317933      -0.92213078      -0.96965993
S        2.37021618       2.56862346       2.21392461      -0.48698005      -0.83595357       0.69918425
S        0.84158807       9.28864605       4.06664744       0.73645419      -0.85733898      -0.18146280
S        9.66930358       9.23264444       7.08517144      -0.41952536       1.27110687      -1.67675393
S        4.03338719       6.68035342       3.59255112      -0.31910836      -0.46190048       0.04391059
S        6.36238069       6.83122888       5.91386572      -0.09362621      -0.10289375       0.36948629
S        2.85881228       7.76874406       7.57989406      -0.42349514      -0.14009607       0.52811899
S        6.29590657       4.39187137       3.58158811       0.46136646      -1.24143068      -0.71521688
S        4.37065894       4.14610825       6.08952936      -1.23148462      -0.68183676       0.67197478
S        8.92295975       1.30789552       4.56034069      -2.33506278       0.73079391      -1.11856923
S        1.27460878       1.72356524       6.35295470      -0.20632846      -1.51380692      -0.08575375
S        7.65381103       2.60224768       7.75097599      -1.02972579       0.02720639      -0.22778406
S        6.67549233       8.77337419       9.27607778      -1.20782636       1.36442017       0.30393396
S        3.97108057       9.29224576       0.97158145      -0.60832635      -1.17721275       0.79019976
S        8.97376834       5.84891689       8.89390862      -1.02716291       1.26182030      -1.41424635
S        1.62251626       5.88259217       0.63355285      -1.17839597       1.12829160       0.17695566
S        7.65596583       7.83758498       2.60046129       0.01881868      -0.14365345       0.15946290
Cl      -0.03969383      -0.83551761       0.29532966       0.21076695       0.32893743       0.13746866
Cl       0.41672347       5.09882880       5.40121499       0.29486619       0.36177838      -0.23403955
Cl       4.39822490      -0.15611671       4.99017163       0.53849416       0.19661483      -0.32686820
Cl       5.29565152       5.10038042      -0.38183017      -0.09246587      -0.23990655       0.55164072
52
Lattice="10.279498 0.0 0.0 0.0 10.279498 0.0 0.0 0.0 10.279498" Properties=species:S:1:pos:R:3:dft_forces:R:3 spacegroup="_JSON {\"number\": 1, \"setting\": 1}" unit_cell=conventional occupancy="_JSON {\"0\": {\"Li\": 1.0}, \"1\": {\"Li\": 1.0}, \"2\": {\"Li\": 1.0}, \"3\": {\"Li\": 1.0}, \"4\": {\"Li\": 1.0}, \"5\": {\"Li\": 1.0}, \"6\": {\"Li\": 1.0}, \"7\": {\"Li\": 1.0}, \"8\": {\"Li\": 1.0}, \"9\": {\"Li\": 1.0}, \"10\": {\"Li\": 1.0}, \"11\": {\"Li\": 1.0}, \"12\": {\"Li\": 1.0}, \"13\": {\"Li\": 1.0}, \"14\": {\"Li\": 1.0}, \"15\": {\"Li\": 1.0}, \"16\": {\"Li\": 1.0}, \"17\": {\"Li\": 1.0}, \"18\": {\"Li\": 1.0}, \"19\": {\"Li\": 1.0}, \"20\": {\"Li\": 1.0}, \"21\": {\"Li\": 1.0}, \"22\": {\"Li\": 1.0}, \"23\": {\"Li\": 1.0}, \"24\": {\"P\": 1.0}, \"25\": {\"P\": 1.0}, \"26\": {\"P\": 1.0}, \"27\": {\"P\": 1.0}, \"28\": {\"S\": 1.0}, \"29\": {\"S\": 1.0}, \"30\": {\"S\": 1.0}, \"31\": {\"S\": 1.0}, \"32\": {\"S\": 1.0}, \"33\": {\"S\": 1.0}, \"34\": {\"S\": 1.0}, \"35\": {\"S\": 1.0}, \"36\": {\"S\": 1.0}, \"37\": {\"S\": 1.0}, \"38\": {\"S\": 1.0}, \"39\": {\"S\": 1.0}, \"40\": {\"S\": 1.0}, \"41\": {\"S\": 1.0}, \"42\": {\"S\": 1.0}, \"43\": {\"S\": 1.0}, \"44\": {\"S\": 1.0}, \"45\": {\"S\": 1.0}, \"46\": {\"S\": 1.0}, \"47\": {\"S\": 1.0}, \"48\": {\"Cl\": 1.0}, \"49\": {\"Cl\": 1.0}, \"50\": {\"Cl\": 1.0}, \"51\": {\"Cl\": 1.0}}" source=mace_800K frame_in_traj=400 config_type=Li6PS5Cl_md_snapshot dft_energy=-13990.933471901326 dft_stress="3.04001986e-03 1.04633242e-02 6.32059702e-03 1.46813403e-03 -3.49818051e-03 2.30090298e-03" labelled_by=QE-pw.x-PBE-SSSP pbc="T T T"
Li       2.33861213       3.56181283       4.82056437       0.10981336       0.56155747      -0.70178364
Li       4.58631900       3.85789228       2.39811416      -0.66547889       0.02602548      -0.71665464
Li       3.83104149       2.89482373      -0.14127931      -0.42961823      -0.28229350       0.60026363
Li       3.53993313       0.55118937       3.72801179       0.04499533       0.25126337      -0.38220374
Li       1.62225063       0.53974799       1.54732406       0.36804210       0.48565593       0.46926361
Li      -2.87423177       6.20789226       0.72521231      -0.10430400       0.25980098       0.14796570
Li       4.71468298       8.25453430       7.50664907       0.54639876       0.03158754       0.23923704
Li      -0.38370743      11.27594763       7.64092855      -0.32150025      -0.18479624       0.35283943
Li       3.00999066       5.70606865       8.82195384      -0.24517114       0.24672512      -0.46380207
Li      -0.22927919       3.48329819       6.86655336       0.35141889       0.58790973       0.06527337
Li       0.80913372       7.81911285       9.34118581       0.31103303       0.28174586      -0.24956567
Li       2.40481982      10.26378194       7.70272863       0.49777406      -0.56380461       0.05195402
Li       9.86831210      -1.65843511       2.39163132      -0.15277109      -0.48277553       0.00802133
Li       7.67172948       2.32093035       4.87809526      -0.14230465       0.20977451       0.13330013
Li       6.94544695       4.56953654       7.56205816       0.26924669       0.41201517      -0.28645689
Li       6.00594431       1.73318811       7.21357519      -0.85578655      -0.75818490      -0.43568886
Li       5.55187226      -1.96921740      14.36623924      -0.32574900      -0.36222138      -0.11582306
Li       6.89321055       2.70415081       9.59376265       0.48645555      -0.64528107       0.45123220
Li      11.46823361       7.18348884       5.30760256       0.40901135       0.12007463       0.67311044
Li       8.28945978       9.29054894       0.63012502      -1.09251907       0.08304303      -0.06805453
Li      11.39468890       4.04209070       2.02273296      -0.53457117       0.27073408      -0.23509062
Li       7.89969565       5.64199044       4.22496536      -0.09457932       0.37334218      -0.32144395
Li       7.67011895       9.53743884       4.22664785       0.42157787       0.39314070       0.13935508
Li       4.88982451       7.10404602       1.42955202       0.02234469       0.67295926       0.33921412
P        5.14815647      -0.38944503       0.33940867       0.58089139       0.54337617       1.02613319
P        4.89979153       5.58146234       5.26026924       2.00913226      -1.39079866      -2.11917804
P        0.50551226       0.25486153       5.04650852      -0.72151711      -0.41206736      -0.58354272
P       -0.41669542       5.43381340      -0.26312408      -1.03279646      -2.23524227      -1.42688306
S        0.98561241       4.16020281       9.09300901       0.14845524       0.07979753      -0.23654483
S        8.40562076       4.03235364       0.54734860       0.89985474       1.16513654      -0.00937501
S        4.65706449       0.74575907       9.00736719      -1.23360167       1.56173974      -1.32505658
S        6.27783629       0.84453055       1.51585848       0.41389850       0.26173624      -0.24112088
S        2.72729477       2.61067574       2.32615243       0.24214804      -0.64901174       0.06600305
S        1.42344493       9.03491921       3.75326964       0.16726055       1.48201394       0.98832151
S        9.65704765       9.26934993       6.39304292       0.86221019       1.44653503      -0.97883774
S        3.78709393       6.40014752       3.74308877      -0.21986609       0.65066368       0.94703885
S        6.49780462       6.61286766       6.12844479      -0.83169197       0.25193983      -0.00147350
S        2.55084428       7.76165645       7.61825015      -0.34647261       0.27585623       0.16509311
S        5.96395558       4.10941392       3.93775252       1.51367657       0.48558574       1.93361844
S        4.06150790       4.36644407       6.58651644      -0.80062378      -0.50210611       1.20148602
S        9.69246486       1.48530130       3.75941150      -0.23239173      -0.88847632       0.45720771
S        1.86841216       1.76207814       6.02480737      -1.16842832      -2.47478244       0.65867164
S        8.03845261       2.37110234       7.36678246       0.02009420       0.86074312      -0.02753986
S        6.28771865       8.44564879       9.74658664      -0.23515258      -0.67663311      -0.33402692
S        3.48871446       9.28657220       1.40661957       0.68014832      -0.58785060      -0.16901712
S        8.99381471       6.75498226       8.66811319       0.09743401      -0.64264029       0.83660200
S        0.56950463       6.31477856       1.20410677       0.57327579       0.98777181       1.01576701
S        7.41898802       7.84726836       2.67046276       0.67736381      -0.24340814       0.13329319
Cl       0.09715608      -0.25396884       0.18407539      -0.32089810      -0.22747012      -0.43968949
Cl       0.31966015       5.03142117       5.12336450      -0.31584151      -0.10014318      -0.24842230
Cl       5.46958996       0.17261806       5.26829393       0.19927001      -0.27743514      -0.16584335
Cl       5.11887328       5.14686162       0.45382078      -0.49959028      -0.73282688      -0.81714698
52
Lattice="10.279498 0.0 0.0 0.0 10.279498 0.0 0.0 0.0 10.279498" Properties=species:S:1:pos:R:3:dft_forces:R:3 spacegroup="_JSON {\"number\": 1, \"setting\": 1}" unit_cell=conventional occupancy="_JSON {\"0\": {\"Li\": 1.0}, \"1\": {\"Li\": 1.0}, \"2\": {\"Li\": 1.0}, \"3\": {\"Li\": 1.0}, \"4\": {\"Li\": 1.0}, \"5\": {\"Li\": 1.0}, \"6\": {\"Li\": 1.0}, \"7\": {\"Li\": 1.0}, \"8\": {\"Li\": 1.0}, \"9\": {\"Li\": 1.0}, \"10\": {\"Li\": 1.0}, \"11\": {\"Li\": 1.0}, \"12\": {\"Li\": 1.0}, \"13\": {\"Li\": 1.0}, \"14\": {\"Li\": 1.0}, \"15\": {\"Li\": 1.0}, \"16\": {\"Li\": 1.0}, \"17\": {\"Li\": 1.0}, \"18\": {\"Li\": 1.0}, \"19\": {\"Li\": 1.0}, \"20\": {\"Li\": 1.0}, \"21\": {\"Li\": 1.0}, \"22\": {\"Li\": 1.0}, \"23\": {\"Li\": 1.0}, \"24\": {\"P\": 1.0}, \"25\": {\"P\": 1.0}, \"26\": {\"P\": 1.0}, \"27\": {\"P\": 1.0}, \"28\": {\"S\": 1.0}, \"29\": {\"S\": 1.0}, \"30\": {\"S\": 1.0}, \"31\": {\"S\": 1.0}, \"32\": {\"S\": 1.0}, \"33\": {\"S\": 1.0}, \"34\": {\"S\": 1.0}, \"35\": {\"S\": 1.0}, \"36\": {\"S\": 1.0}, \"37\": {\"S\": 1.0}, \"38\": {\"S\": 1.0}, \"39\": {\"S\": 1.0}, \"40\": {\"S\": 1.0}, \"41\": {\"S\": 1.0}, \"42\": {\"S\": 1.0}, \"43\": {\"S\": 1.0}, \"44\": {\"S\": 1.0}, \"45\": {\"S\": 1.0}, \"46\": {\"S\": 1.0}, \"47\": {\"S\": 1.0}, \"48\": {\"Cl\": 1.0}, \"49\": {\"Cl\": 1.0}, \"50\": {\"Cl\": 1.0}, \"51\": {\"Cl\": 1.0}}" source=mace_800K frame_in_traj=500 config_type=Li6PS5Cl_md_snapshot dft_energy=-13990.78646022308 dft_stress="4.73769329e-03 7.86861076e-04 2.72692812e-03 -8.59854607e-03 -2.71591023e-03 -2.23846827e-03" labelled_by=QE-pw.x-PBE-SSSP pbc="T T T"
Li       1.98008857       3.40622667       5.52770468       0.03381155      -0.19490248      -0.17244929
Li       2.05759943       4.78635810       3.29055318      -0.25318861       1.69403611       0.18676262
Li       3.13610369       3.43133604       0.39910739      -0.72949499      -0.05941614      -0.07235496
Li       4.49041054       3.66916949       2.47247963       0.61559152       0.12926967       0.64000157
Li       0.89226246      -0.45826528       1.81138227      -0.03906946       0.23406603       0.14231545
Li      -2.84514101       5.04905168       1.73522935       0.28295016       0.25540979       0.07376726
Li       3.94359055      10.70706846       3.49851094      -0.51602066       0.35555786      -0.14437824
Li      -0.75584882      14.16232299       7.66404071      -0.16459200      -0.05305111      -0.56838195
Li       3.81121055       7.63884384       9.97121912       0.04396561       0.38471648      -0.16956837
Li       0.44059042       8.42534396       7.95590654      -0.07855671      -0.33018518       0.01054435
Li       2.87302765      10.35198631       7.91753912       0.26773591       0.00505479       0.08820478
Li       3.64916446       5.79267183       8.09575625      -0.14251239      -0.54161008      -0.36967296
Li       9.01453762      -2.82315399       0.44198079      -0.01067419      -0.44226857       0.02146048
Li       8.34061444      -0.04438715       7.88822854      -0.27598067       1.07668673       0.29932115
Li       5.47545768       1.95801359       7.28625974       0.54526542       0.05687563      -0.86965790
Li       7.60288262       1.53815168       5.29959114       0.29720024       0.62778086       0.06263284
Li       5.18382171      -2.91522392      12.49824751       1.08160525       0.50362512      -0.27890376
Li       6.55169774       3.36906965       9.32711635       0.56151248      -0.05176891      -0.18822018
Li      12.30396227       7.43344143       5.58931007      -0.10755310      -0.32027127      -0.10395870
Li       7.49363872       9.35332792       4.15390329       0.29119672      -0.43643962      -0.28785737
Li      10.46489434       3.23619062       2.33382129      -0.42266751      -0.46012385       0.00098319
Li       8.18420163       5.97033042       4.33258330       0.57747388       0.32553123      -0.27568242
Li       5.16925442       8.24764374       6.89269047       0.09132944       0.23540275      -0.00040289
Li       7.48328914       9.82396337       0.84197842       0.50148056      -0.78635159       0.08044905
P        4.96392055       0.42217854       0.29762702       1.27391708      -1.07612880      -0.53110867
P        5.59700918       5.15656391       5.01107045      -0.02990167      -0.99015677      -0.36341360
P        0.52812368       0.27067298       5.04102667      -4.52819243      -2.10093170      -1.24588717
P       -0.37277416       4.72308817      -0.16314530      -0.54350858       1.15659713       0.16865434
S        1.30804617       4.02123939       9.15772416       0.07070919       0.12229606      -0.04351618
S        8.69311487       3.16088602       0.40619262      -0.17169673       0.19674724       0.12884261
S        4.35006641       1.91011164       9.27005629      -1.73433841      -0.08099283       0.69344298
S        6.23075061       1.25807331       1.63215364      -0.56659657       0.56291553       0.12650882
S        2.40603890       2.77970916       2.95109436       0.66874393      -1.40154047      -0.57542677
S        1.56239891       9.21778637       3.99300469       1.37483725      -0.55633993      -0.35354520
S        9.26861427       9.24027309       6.07731891       0.76052434      -0.19184698      -0.55604657
S        4.32269287       6.07469136       3.74865685      -1.73566767       0.04061083      -0.83957728
S        6.58961082       6.60202164       5.91761524       0.85815787       0.79827817       1.09703315
S        3.00849410       8.04188192       7.65114676      -0.41936235      -0.31942383       0.50244061
S        6.95048003       3.92097248       3.95480031      -0.85713406       0.40487110       0.07305841
S        4.27839718       4.15188370       6.21173552      -0.07987261      -0.63944904       1.07329005
S        9.33416806       1.04248826       3.59849066       1.25024622       0.30656523       0.56648422
S        1.26115180       1.12618917       6.58677350       1.25221363       2.29901283       1.42690106
S        7.73896863       2.41872344       7.40559064      -0.20747723      -0.44636665       0.26194605
S        6.04036361       9.62796236       9.08405394      -0.12327720      -0.73112738       0.86730766
S        3.76621132       9.29213108       1.55888117      -0.01227265       0.73770863      -1.60682738
S        8.76558552       6.02501183       8.63639045       1.19176956      -0.86585576       1.82843821
S       -0.01720039       5.62626401       1.76070053       0.48421226      -0.06599353      -1.07751488
S        7.62062297       7.53088374       2.26452230      -0.87551591       0.56892085       0.25359073
Cl      -0.19360501      -0.89165907      -0.15973793      -0.08131937       0.24308315      -0.31274410
Cl       0.36931603       5.19547192       5.46838039       0.50258048       0.04163002      -0.31083609
Cl       5.58725536       0.53629907       4.99386267      -0.06293212      -0.63635806       0.55411310
Cl       4.83530821       5.12410435       0.08931019      -0.10965524       0.41564994       0.08943891
52
Lattice="10.279498 0.0 0.0 0.0 10.279498 0.0 0.0 0.0 10.279498" Properties=species:S:1:pos:R:3:dft_forces:R:3 spacegroup="_JSON {\"number\": 1, \"setting\": 1}" unit_cell=conventional occupancy="_JSON {\"0\": {\"Li\": 1.0}, \"1\": {\"Li\": 1.0}, \"2\": {\"Li\": 1.0}, \"3\": {\"Li\": 1.0}, \"4\": {\"Li\": 1.0}, \"5\": {\"Li\": 1.0}, \"6\": {\"Li\": 1.0}, \"7\": {\"Li\": 1.0}, \"8\": {\"Li\": 1.0}, \"9\": {\"Li\": 1.0}, \"10\": {\"Li\": 1.0}, \"11\": {\"Li\": 1.0}, \"12\": {\"Li\": 1.0}, \"13\": {\"Li\": 1.0}, \"14\": {\"Li\": 1.0}, \"15\": {\"Li\": 1.0}, \"16\": {\"Li\": 1.0}, \"17\": {\"Li\": 1.0}, \"18\": {\"Li\": 1.0}, \"19\": {\"Li\": 1.0}, \"20\": {\"Li\": 1.0}, \"21\": {\"Li\": 1.0}, \"22\": {\"Li\": 1.0}, \"23\": {\"Li\": 1.0}, \"24\": {\"P\": 1.0}, \"25\": {\"P\": 1.0}, \"26\": {\"P\": 1.0}, \"27\": {\"P\": 1.0}, \"28\": {\"S\": 1.0}, \"29\": {\"S\": 1.0}, \"30\": {\"S\": 1.0}, \"31\": {\"S\": 1.0}, \"32\": {\"S\": 1.0}, \"33\": {\"S\": 1.0}, \"34\": {\"S\": 1.0}, \"35\": {\"S\": 1.0}, \"36\": {\"S\": 1.0}, \"37\": {\"S\": 1.0}, \"38\": {\"S\": 1.0}, \"39\": {\"S\": 1.0}, \"40\": {\"S\": 1.0}, \"41\": {\"S\": 1.0}, \"42\": {\"S\": 1.0}, \"43\": {\"S\": 1.0}, \"44\": {\"S\": 1.0}, \"45\": {\"S\": 1.0}, \"46\": {\"S\": 1.0}, \"47\": {\"S\": 1.0}, \"48\": {\"Cl\": 1.0}, \"49\": {\"Cl\": 1.0}, \"50\": {\"Cl\": 1.0}, \"51\": {\"Cl\": 1.0}}" source=mace_800K frame_in_traj=600 config_type=Li6PS5Cl_md_snapshot dft_energy=-13991.006640999569 dft_stress="7.46003062e-03 2.14114356e-03 1.07332625e-03 -3.95909564e-03 2.85914281e-03 4.32452237e-03" labelled_by=QE-pw.x-PBE-SSSP pbc="T T T"
Li      -0.06962198       2.24941848       7.77909503       0.69836818       0.11783597      -0.07041249
Li       0.32599845       3.43247706       2.94281511       0.24140679      -0.04782869       0.26617268
Li       4.55506304       1.34767960       2.93781667       0.17893567      -0.02135224      -0.29407250
Li       3.63916484       4.38220857       2.76369841      -0.02951575       0.32660312       0.14649066
Li       3.66520545       3.31364921      -0.01811840      -0.09368740      -0.23136406       0.18971193
Li      -1.62623647       6.81873100       4.72448028      -0.39157258       0.30619088      -0.15376174
Li       1.43556299      11.87353949       0.72986510      -0.00075179       0.06282542       0.22614755
Li      -2.66503116      14.86069868       8.72677164       0.00513475       0.23846185      -0.68734458
Li       3.60889948       7.03630709      10.80782437      -0.12297278      -0.13554650      -0.50379995
Li      -0.37292389       8.56366398       8.26457267       0.72802534      -0.37566260      -0.46938214
Li       1.80089414       6.70472869       5.37972457      -0.14583194      -0.04576152       0.40265610
Li       3.11827185       9.34561960       6.21622508      -0.22593569      -0.30716147       0.03708174
Li       8.08529904      -1.17237441       0.55273438      -0.06541041       0.23709016      -0.60787846
Li       7.34842051       0.38546017       6.80460980       0.94724454      -0.44714904       0.14032695
Li       8.03254287       2.17193363      10.22368861       0.31131200       0.02862538      -0.77292143
Li       7.99952049       3.84312596       5.05565660       0.16946141       0.03724603       0.63944390
Li       7.64099959      -0.57972065      13.52807156       0.25532777       0.60394828       0.54999110
Li       5.67874259       1.87487644       6.64976073      -0.61652894       1.13544724       0.24267126
Li      13.89743199       5.44094427       8.37784992      -0.54555904       0.90391117      -0.39461703
Li      10.33420905       8.27560534       1.61792473       0.09002049      -0.52587313       0.43830033
Li      12.60280222       2.50705646       5.02206791       0.26208412       0.14455051      -0.07822710
Li       7.30595270       6.11942779       0.72366613       0.35438081      -0.33491678      -0.18651682
Li       2.87722235       9.37366986       9.13174914      -0.27651443      -0.41596978      -0.30370668
Li       5.81276303       7.64965609       2.98198221      -0.52061599      -0.06723152       0.23018855
P        5.46173547       0.23330078      -0.21443040      -0.29714291      -0.04004185      -0.36314004
P        4.95427699       5.04235730       5.21350514       1.02423031       1.09447902       2.97516411
P        0.07063075      -0.08557678       4.87074809      -1.90423048       0.68392630       1.07004146
P        0.20338977       4.97089193       0.21776832      -1.34447484       1.23149671       0.41349201
S        1.22315472       3.91651132       9.24221261       1.35228328      -2.90589113      -2.30639935
S        8.97221339       3.90996162       1.24325091       0.59309462       0.40453917      -0.10827892
S        4.07168128       1.23373187       8.78462809       0.61751110      -0.13560178       0.46178453
S        6.26790882       1.54102334       1.23441132       0.03690896      -0.77505108      -0.76432006
S        2.67397578       2.39096671       2.64959207      -1.26611635       0.16678283      -0.73285773
S        1.07083638       8.78775468       3.89581025       0.83349277      -0.12558502      -0.93692233
S        8.81395289       8.94782433       5.89766248       0.39603833       1.13554674      -0.22256780
S        4.15495049       6.77944193       4.56362969      -1.01071402       0.30855860      -1.75120870
S        6.54426187       5.88438491       6.29010714       0.33411666      -0.53343989       0.09191951
S        2.11690478       7.51182230       7.67199793       0.61906688       0.80581227       0.46446773
S        5.77427585       3.73853912       3.98356090       0.14557715      -0.59639695      -1.41266769
S        3.54788043       4.15920027       6.53124617       0.41456827      -0.64453211      -1.24909437
S        9.23344131       1.48659461       3.83014703       0.58782052      -1.65112671       0.30208585
S        1.28027115       0.83627036       6.31328806      -0.03923555      -0.25272170      -0.11703893
S        8.12655214       2.62802097       7.55858738      -1.60356156      -0.52907492       0.06310567
S        6.74582720       9.39283638       8.87483792      -0.31621741       0.60929720       0.34685416
S        4.32393614       9.21935371       0.91481321      -0.38079246      -0.11091713       0.55505695
S        9.40713663       6.42085955       9.49731512      -0.66877479      -0.17811291       0.08810631
S        1.80247300       5.66738264       1.25856464       0.03834055       1.21826581       1.66690377
S        7.89865899       7.65355238       2.19811901       0.23169702       0.46481277       0.99978323
Cl       0.10067948      -0.36983606      -0.02248209       0.00481979       0.41883322       0.05892840
Cl      -0.15328104       5.17163731       4.65972479       0.26285030      -0.45441343      -0.00625832
Cl       5.15903760       0.50419215       4.83414747       0.37073251      -0.84958839       1.00623542
Cl       5.37145197       5.15412677      -0.38743365      -0.23869453       0.05322518       0.42028332
52
Lattice="10.279498 0.0 0.0 0.0 10.279498 0.0 0.0 0.0 10.279498" Properties=species:S:1:pos:R:3:dft_forces:R:3 spacegroup="_JSON {\"number\": 1, \"setting\": 1}" unit_cell=conventional occupancy="_JSON {\"0\": {\"Li\": 1.0}, \"1\": {\"Li\": 1.0}, \"2\": {\"Li\": 1.0}, \"3\": {\"Li\": 1.0}, \"4\": {\"Li\": 1.0}, \"5\": {\"Li\": 1.0}, \"6\": {\"Li\": 1.0}, \"7\": {\"Li\": 1.0}, \"8\": {\"Li\": 1.0}, \"9\": {\"Li\": 1.0}, \"10\": {\"Li\": 1.0}, \"11\": {\"Li\": 1.0}, \"12\": {\"Li\": 1.0}, \"13\": {\"Li\": 1.0}, \"14\": {\"Li\": 1.0}, \"15\": {\"Li\": 1.0}, \"16\": {\"Li\": 1.0}, \"17\": {\"Li\": 1.0}, \"18\": {\"Li\": 1.0}, \"19\": {\"Li\": 1.0}, \"20\": {\"Li\": 1.0}, \"21\": {\"Li\": 1.0}, \"22\": {\"Li\": 1.0}, \"23\": {\"Li\": 1.0}, \"24\": {\"P\": 1.0}, \"25\": {\"P\": 1.0}, \"26\": {\"P\": 1.0}, \"27\": {\"P\": 1.0}, \"28\": {\"S\": 1.0}, \"29\": {\"S\": 1.0}, \"30\": {\"S\": 1.0}, \"31\": {\"S\": 1.0}, \"32\": {\"S\": 1.0}, \"33\": {\"S\": 1.0}, \"34\": {\"S\": 1.0}, \"35\": {\"S\": 1.0}, \"36\": {\"S\": 1.0}, \"37\": {\"S\": 1.0}, \"38\": {\"S\": 1.0}, \"39\": {\"S\": 1.0}, \"40\": {\"S\": 1.0}, \"41\": {\"S\": 1.0}, \"42\": {\"S\": 1.0}, \"43\": {\"S\": 1.0}, \"44\": {\"S\": 1.0}, \"45\": {\"S\": 1.0}, \"46\": {\"S\": 1.0}, \"47\": {\"S\": 1.0}, \"48\": {\"Cl\": 1.0}, \"49\": {\"Cl\": 1.0}, \"50\": {\"Cl\": 1.0}, \"51\": {\"Cl\": 1.0}}" source=mace_800K frame_in_traj=700 config_type=Li6PS5Cl_md_snapshot dft_energy=-13990.469995366202 dft_stress="2.59195895e-03 -9.08976039e-05 -2.52401528e-03 -4.83869063e-04 6.62909798e-04 -1.30011118e-03" labelled_by=QE-pw.x-PBE-SSSP pbc="T T T"
Li      -3.38414307       3.47743058      10.19936072       0.17475942      -0.79535816      -0.05847588
Li       2.52298367       0.26523826       3.14486500       0.11844892       0.34122267      -0.30350819
Li       2.64417697       2.26465911      -0.02431311      -0.68518434      -0.08934121      -0.14913761
Li       6.06505025       1.72751213       3.45087496      -0.78551778      -0.41766877      -0.53326145
Li       1.92101029       3.26511418       4.11510597       0.43092460       0.15518433       0.72411495
Li      -4.67350130       8.08003706       4.14710007       0.49504380      -0.33838906      -0.16555410
Li       3.48733558      14.88962208       1.54084885      -0.14601732      -0.30928726       0.63007377
Li      -5.38933085      12.79207013       7.14797354       0.43666716       0.07137819       0.10921815
Li       5.96209457       6.58861772      11.50944635       0.93392648       1.38263746       1.08229071
Li       3.50749959       6.96095901       9.65886239       0.15901965       0.54484196      -0.47431943
Li       1.36495297       5.82405172       7.42447617      -0.22399708      -0.94030128       0.62155082
Li       2.84225647       9.84371098       7.14918861      -0.17362737       0.63501029       0.09984956
Li      10.74900567      -1.79932847      -2.12697606       0.19431678       0.15554583       0.29242390
Li       7.47992241       1.81569272       5.53525210       0.11920226       0.01811625       0.58815270
Li       8.72373396       1.01396623       8.03449011       0.38596012      -0.62693342       0.69842835
Li       9.75036776       3.89231711       7.46717463      -0.85670391      -0.15219517      -0.46644054
Li       7.67061966      -0.36517359      12.62810249       0.31376663      -0.81140853      -0.24723162
Li       6.83684974       5.32556412       8.28373592       0.25689871      -0.22541658      -0.32715411
Li      12.33079239       6.75449509       5.50172149       1.04695706       0.45325386      -1.11188667
Li       9.60278964       7.58742405       5.02658550      -0.74715872      -0.13137977      -0.47845504
Li      10.00672428       2.81378125       2.51682603       0.70307150      -0.18202228      -0.69889937
Li       8.39406511       5.37409162       3.68166227      -0.28100846       0.10157400      -0.14522696
Li       4.87094486       8.39937897       6.83069678       0.18870020      -0.59555311       0.74764132
Li      10.97302665       7.92052767       0.68809463      -0.38523044       1.14053648       0.18054801
P        4.94070154      -0.02880265       0.15126250       2.12966609      -1.07973169       0.63464725
P        4.92734918       4.99099178       5.06791218       0.03780730       2.69885331       1.37696998
P        0.01516415       0.07345826       4.99674788      -0.62978863      -0.17205822      -0.15062474
P        0.15484119       5.10238207      -0.26523600       0.40957005      -1.22471285      -0.60980988
S        1.17148477       3.59941407       8.88518555      -0.63354399       0.66019424       0.10172801
S        8.99174858       4.42252394       1.04198884       0.01686515      -0.14440549       0.24290986
S        4.12885813       1.13275397       9.06780130      -0.98187679       0.85147069      -1.68725380
S        6.32750355       1.26630663       1.22662438      -0.31682084      -0.19730954      -0.23757045
S        2.48495644       2.55903800       2.10155976      -0.45405605      -0.01313525       0.97071846
S        0.71607895       8.95403959       3.72958340       0.58809922      -0.46067587      -0.28585371
S        9.32047043       9.40134505       6.57442907      -0.60136097       0.48271639      -0.80041013
S        3.94550619       6.27530825       3.66845143       0.78044834      -0.73334341      -0.05343087
S        6.03913817       6.37535604       6.42772105      -0.16918604      -0.25286517      -1.52309837
S        2.59289452       7.61027782       7.50523067       0.18969239       0.86993661       0.27755419
S        6.33117612       3.63549150       4.52735198       0.19689405       0.52806705      -0.74625292
S        3.44882892       4.43962381       6.30515185       0.03076376      -1.78926206       0.11582923
S        8.83825390       1.21910374       3.74333803       0.41609294      -0.26645319       0.81191170
S        1.52330777       1.18924792       5.68932397       0.01046028       0.85298944       0.03986470
S        7.54924512       2.80476999       7.54573825      -0.29793583       0.85876928       0.94772431
S        6.13310587       8.88081375       9.48071355      -0.12365309      -0.25740908      -0.10782770
S        3.70338559       9.20174983       1.35361843      -0.32603028      -0.25389798       0.47776033
S        9.38272803       6.30478238       8.66547106       0.48341033      -0.17237575       0.14225168
S        1.78605224       5.96151224       0.63370632      -0.75963911       0.64235027       0.63438731
S        7.82145500       7.47537698       3.00051731      -0.61712441       0.35668657       0.03914119
Cl       0.37401585      -0.10172395      -0.47520517      -0.16473032      -0.55992276      -0.02686031
Cl       0.59184799       5.16238946       5.09022148      -1.33744261      -0.00518951      -0.04965083
Cl       4.80267457      -0.10498384       5.48818827       0.28482089       0.23348548      -0.42910709
Cl       5.09206683       5.20305569      -0.07485676       0.16538004      -0.83681823      -0.72038814
52
Lattice="10.279498 0.0 0.0 0.0 10.279498 0.0 0.0 0.0 10.279498" Properties=species:S:1:pos:R:3:dft_forces:R:3 spacegroup="_JSON {\"number\": 1, \"setting\": 1}" unit_cell=conventional occupancy="_JSON {\"0\": {\"Li\": 1.0}, \"1\": {\"Li\": 1.0}, \"2\": {\"Li\": 1.0}, \"3\": {\"Li\": 1.0}, \"4\": {\"Li\": 1.0}, \"5\": {\"Li\": 1.0}, \"6\": {\"Li\": 1.0}, \"7\": {\"Li\": 1.0}, \"8\": {\"Li\": 1.0}, \"9\": {\"Li\": 1.0}, \"10\": {\"Li\": 1.0}, \"11\": {\"Li\": 1.0}, \"12\": {\"Li\": 1.0}, \"13\": {\"Li\": 1.0}, \"14\": {\"Li\": 1.0}, \"15\": {\"Li\": 1.0}, \"16\": {\"Li\": 1.0}, \"17\": {\"Li\": 1.0}, \"18\": {\"Li\": 1.0}, \"19\": {\"Li\": 1.0}, \"20\": {\"Li\": 1.0}, \"21\": {\"Li\": 1.0}, \"22\": {\"Li\": 1.0}, \"23\": {\"Li\": 1.0}, \"24\": {\"P\": 1.0}, \"25\": {\"P\": 1.0}, \"26\": {\"P\": 1.0}, \"27\": {\"P\": 1.0}, \"28\": {\"S\": 1.0}, \"29\": {\"S\": 1.0}, \"30\": {\"S\": 1.0}, \"31\": {\"S\": 1.0}, \"32\": {\"S\": 1.0}, \"33\": {\"S\": 1.0}, \"34\": {\"S\": 1.0}, \"35\": {\"S\": 1.0}, \"36\": {\"S\": 1.0}, \"37\": {\"S\": 1.0}, \"38\": {\"S\": 1.0}, \"39\": {\"S\": 1.0}, \"40\": {\"S\": 1.0}, \"41\": {\"S\": 1.0}, \"42\": {\"S\": 1.0}, \"43\": {\"S\": 1.0}, \"44\": {\"S\": 1.0}, \"45\": {\"S\": 1.0}, \"46\": {\"S\": 1.0}, \"47\": {\"S\": 1.0}, \"48\": {\"Cl\": 1.0}, \"49\": {\"Cl\": 1.0}, \"50\": {\"Cl\": 1.0}, \"51\": {\"Cl\": 1.0}}" source=mace_800K frame_in_traj=800 config_type=Li6PS5Cl_md_snapshot dft_energy=-13990.195433047227 dft_stress="4.64771385e-03 1.42498062e-03 -1.07057178e-03 4.61741465e-03 -2.86832439e-03 -2.68377471e-03" labelled_by=QE-pw.x-PBE-SSSP pbc="T T T"
Li      -1.98927265      -0.00262152       7.23916090      -0.45773581       0.67640299       0.56072315
Li       2.91884274       5.50631933       3.44465691      -1.39543590      -0.76413597      -0.64268040
Li       0.49558992       3.04926346       1.74287925      -0.43280511       0.06485865       0.18853540
Li       2.76647230       0.95313575       1.68150629       0.06383149      -0.13828833       0.61023591
Li       3.04625215       3.47630288      -0.14024021       0.28952781       0.16332187       0.28563362
Li      -4.12097250       5.96379660       2.25973428      -0.02619029       0.20845605      -0.32848028
Li       4.74932542      13.40537075       2.10047765       0.58710498      -0.18891540      -0.07217087
Li      -8.48232530      19.47422222       9.83565057       0.47301305      -0.40860768      -0.19000067
Li       8.50414096      10.36154762      11.49914611      -0.47336297      -0.23141163       0.19136361
Li       1.12521967       9.16817807      17.33806683      -0.11498462      -0.74612360       0.05176659
Li       3.21987752       6.67099197       9.94242356       0.09174622       0.18231487      -0.10652286
Li       3.09582255      11.51348046       4.79314745       0.78191592      -0.11502936      -0.47472952
Li      11.90793224      -4.65479141      -3.32753878       0.23034385       0.67556507       0.05730886
Li       3.93484716       1.13406516       7.51814718      -0.02417660      -0.17946814      -0.19115201
Li      10.46236737       1.74029036       8.19282520      -0.54327693       0.61386296      -0.18495205
Li       6.21289991       2.09009288       5.74018616       0.23342120       0.27965375      -0.12103777
Li       6.39821481      -1.45037329      14.04465863      -0.57504496       0.49212329      -0.61389536
Li       7.58874041       3.66288963       9.02964689      -0.84112200      -0.07800418       0.48809462
Li      11.54795590       2.99372851       4.65344288      -0.49882410       0.46029946       0.03916073
Li       8.06802881       7.26657972       4.80390485       0.51865219      -0.54090508      -0.43648281
Li       8.83021775       4.40902273       6.96224514      -0.08339656       0.35905507      -0.59775140
Li       7.68362098       7.40872508      -0.00170162      -0.31320382       0.21846509       0.09733682
Li       4.45984639       8.07436113       6.54927376      -0.22204613      -0.37411042       0.44441390
Li       9.86663282       6.70111799       2.61212402       0.23666850      -0.08513488      -0.09794438
P        5.21907395      -0.27838039       0.08861355      -0.12464477       0.74372244       1.86062148
P        5.33369254       5.06573938       5.11017603       1.41276565       0.44578635      -0.38973862
P        0.26212090       0.04180625       4.47807604      -0.78555815      -0.18433498       0.92039297
P       -0.26919587       4.93652005      -0.36709665       2.66459593       2.08742981       0.05121355
S        1.19727098       3.98546113       8.69053912      -0.87871513      -0.90993886      -0.34018009
S        8.81265443       3.93132514       0.82899289      -0.55494151      -0.88966854       0.14015649
S        3.47243801       1.00315584       9.78967989       0.79116521      -0.26813366      -0.56595946
S        5.99069104       0.61861174       1.87889394       0.23522251       0.87951988      -0.87807030
S        2.50124870       3.35606132       2.61202415       0.39802065      -1.51159191       0.03540383
S        1.43674040       9.23518017       3.19739766      -0.13368605       1.28761849       0.50619391
S        9.28148716       9.11114805       5.61697239       0.66214365      -0.86067216       0.05816478
S        4.24369361       6.71633340       4.51622790       0.73198947       0.70049783      -0.09626673
S        6.80951714       5.97703830       6.28114666      -0.49692122      -0.37008330       0.54869913
S        2.58672802       7.69918507       7.99356266       0.00722609       0.13074908      -0.30035859
S        6.37292080       4.10554931       3.58533835      -0.27115728      -0.24401697       0.54102155
S        4.06615136       3.69098539       5.89551787      -0.42199259      -0.53615883       0.88228279
S        9.27015926       1.53821617       4.07996235       0.95739706       0.51477239      -1.32528155
S        1.49189500       1.01373869       6.37516958       0.14736741       0.21790768      -1.32744205
S        7.93261004       2.29862935       7.27848690       0.44612188       0.10822647       0.19172228
S        6.63242693       9.44378675       9.05367554      -0.34200609      -0.11731584      -0.02542872
S        4.27693112       8.54071676       1.07370125      -1.14583398      -1.50598280      -0.08615201
S        9.18177981       6.42307406       8.82138689      -0.59139127      -0.82412804      -0.92236012
S        1.14378145       5.97039078       0.79913336      -0.15525169       0.27117914       0.84927703
S        7.75292804       7.65040920       2.28396261       0.44769000       0.10730293       0.61692258
Cl      -0.20720532       0.07673910      -0.62041847       0.02050198      -0.14731573       0.31197149
Cl       0.37751761       5.68486227       4.85352373       0.05720987      -0.46599985       0.07247143
Cl       5.16303413      -0.16083580       5.72527376      -0.07044360       0.56584453      -0.26073480
Cl       5.40316183       4.40754966       0.13044378      -0.51149321       0.23054054      -0.02531508
52
Lattice="10.279498 0.0 0.0 0.0 10.279498 0.0 0.0 0.0 10.279498" Properties=species:S:1:pos:R:3:dft_forces:R:3 spacegroup="_JSON {\"number\": 1, \"setting\": 1}" unit_cell=conventional occupancy="_JSON {\"0\": {\"Li\": 1.0}, \"1\": {\"Li\": 1.0}, \"2\": {\"Li\": 1.0}, \"3\": {\"Li\": 1.0}, \"4\": {\"Li\": 1.0}, \"5\": {\"Li\": 1.0}, \"6\": {\"Li\": 1.0}, \"7\": {\"Li\": 1.0}, \"8\": {\"Li\": 1.0}, \"9\": {\"Li\": 1.0}, \"10\": {\"Li\": 1.0}, \"11\": {\"Li\": 1.0}, \"12\": {\"Li\": 1.0}, \"13\": {\"Li\": 1.0}, \"14\": {\"Li\": 1.0}, \"15\": {\"Li\": 1.0}, \"16\": {\"Li\": 1.0}, \"17\": {\"Li\": 1.0}, \"18\": {\"Li\": 1.0}, \"19\": {\"Li\": 1.0}, \"20\": {\"Li\": 1.0}, \"21\": {\"Li\": 1.0}, \"22\": {\"Li\": 1.0}, \"23\": {\"Li\": 1.0}, \"24\": {\"P\": 1.0}, \"25\": {\"P\": 1.0}, \"26\": {\"P\": 1.0}, \"27\": {\"P\": 1.0}, \"28\": {\"S\": 1.0}, \"29\": {\"S\": 1.0}, \"30\": {\"S\": 1.0}, \"31\": {\"S\": 1.0}, \"32\": {\"S\": 1.0}, \"33\": {\"S\": 1.0}, \"34\": {\"S\": 1.0}, \"35\": {\"S\": 1.0}, \"36\": {\"S\": 1.0}, \"37\": {\"S\": 1.0}, \"38\": {\"S\": 1.0}, \"39\": {\"S\": 1.0}, \"40\": {\"S\": 1.0}, \"41\": {\"S\": 1.0}, \"42\": {\"S\": 1.0}, \"43\": {\"S\": 1.0}, \"44\": {\"S\": 1.0}, \"45\": {\"S\": 1.0}, \"46\": {\"S\": 1.0}, \"47\": {\"S\": 1.0}, \"48\": {\"Cl\": 1.0}, \"49\": {\"Cl\": 1.0}, \"50\": {\"Cl\": 1.0}, \"51\": {\"Cl\": 1.0}}" source=mace_800K frame_in_traj=900 config_type=Li6PS5Cl_md_snapshot dft_energy=-13991.84115386951 dft_stress="3.52021630e-03 2.13104382e-03 5.65401459e-03 -3.20253376e-03 4.47418206e-03 -1.94649414e-03" labelled_by=QE-pw.x-PBE-SSSP pbc="T T T"
Li      -2.22697448       0.55051173       9.39446844      -0.43031268      -0.26032702      -0.31098547
Li       3.18572456       2.48907275       4.78872449      -0.30234605      -0.00928528       0.24515854
Li       3.49357595       2.85198360       0.12751978      -0.22523661       0.29225575       0.12192763
Li       0.30906278      -2.91555334       6.41829358       0.12511502       0.43020752       0.67449575
Li       2.22604167       0.36321204       1.61137237      -0.11948174       0.27542094       0.53125213
Li      -2.36454632       5.48054805       3.46052585       0.29490888       0.15761145      -0.30216067
Li       0.22697629      12.98914244       2.23815166       0.45431161       0.31474596      -0.19160966
Li      -6.58180246      20.27761458       6.95818858      -0.07993200      -0.27908245       0.40337960
Li       5.53514912       7.83833390      12.96885301       0.28241383      -0.09299217      -0.05180850
Li       0.23685040       7.01906795      13.69102538      -0.39370197       0.32077880      -0.29831919
Li       1.13995624       8.35844752       9.31030794      -0.10393479       0.11156145      -0.03949266
Li       5.23183964      11.96188013       2.91758678      -0.15377408       0.07463758      -0.14940578
Li      12.43746602      -5.00163397      -3.39062504       0.21919991      -0.07056341       0.61421315
Li       2.93132460      -2.36739759       5.45090629       0.64469229      -0.84057513       0.60013096
Li      13.37518251       4.78898008       1.93179836       0.25326317      -0.00504039       0.25056043
Li       6.26794276       1.78988564       6.07413431       0.43913851       0.80612286       0.84899626
Li       8.53095406      -0.42213070      12.31494987      -0.29185338      -0.10400061       0.57805290
Li       6.16146382       4.40915329       7.95887176      -0.10657737       0.01634013      -0.15251707
Li       8.44954556       3.47586611      -4.61459920       0.15529180      -0.08560102       0.09104893
Li       7.21023716       8.71006901       5.32692075       0.31813725      -0.00936319      -0.42576260
Li       7.23278326       3.42734389      10.22971956      -0.09000687      -0.54600410      -0.15456341
Li       8.62505803       7.47363693       0.58090663      -0.53696718       0.02547732       0.03371308
Li       3.45448238       6.64181323      10.03368240       0.18434244       0.29570669      -0.62484415
Li      10.21103776       1.84541590      -2.29285770       0.08886787       0.38657796       0.32066362
P        5.11067190      -0.07046865      -0.06863768       0.95459173      -0.59710374      -0.29113090
P        5.10036570       5.31668275       5.01674800       0.65733955      -1.24663665      -0.89793001
P        0.52421030       0.49718331       5.24881965      -0.03068329      -1.28715184      -0.37193038
P        0.17889204       5.37931876      -0.09404799      -0.95737597      -1.81604498      -1.58246000
S        1.39333786       4.01451588       9.10589017      -0.74760764       0.42656504       0.13361509
S        8.99922607       4.29812105       1.14318166       0.96604496       0.86671836      -0.66847088
S        4.11469453       1.15973752       8.93878155      -0.57010999       0.55581594       0.45557531
S        6.63541555       0.91283431       1.00075390      -0.47515503       0.81997493       0.45251570
S        2.61829053       2.74161779       2.59732976       0.39801114      -1.16709777      -0.76447073
S        1.85268422       9.43484516       4.41341610       0.03935485       0.44539194      -1.57112221
S        9.47489966       9.47043840       6.07095772      -0.49148051       0.01813116       1.30903527
S        3.71675524       6.16173835       3.77389107      -0.06220373       0.77593348       0.02334202
S        6.09680933       6.64598785       6.08912498       0.49147588       0.10047614       0.41456365
S        2.64201443       7.53920440       7.79207435      -0.08178165      -0.00049519      -0.86144349
S        6.25458534       3.90347788       3.81599265       0.25533008       0.36370131       0.66001504
S        4.30068638       3.97894993       6.31921295      -0.71849812      -0.38268531       0.70857701
S        9.53443784       1.29711073       3.72394572       0.52942716       0.53955217       1.28282621
S        1.86728361       1.46512043       6.69209838      -1.38688698      -0.08331326      -1.31520617
S        7.94466785       2.30199419       7.86947351      -0.64428040       1.14567020      -0.62883038
S        5.94475197       8.87203796       9.03368479       1.11147221      -0.77062801      -0.60280234
S        4.04455396       9.13906138       1.32605205      -0.89687534       0.11558369       0.28776584
S        9.59501841       6.86800317       8.87796180       0.03307493      -1.23218319       0.97440490
S        1.39486866       6.21751924       1.22326828       0.89229621       1.63404944       1.06723381
S        7.97394677       7.62646490       2.74164698      -0.06207286       0.75874643       0.25696094
Cl      -0.32844894       0.10783815       0.36697766       0.86649853      -0.24193515      -0.41004107
Cl      -0.41798870       5.59760212       5.15425184       0.19433426      -0.45414398       0.03401827
Cl       5.55027349       0.09957637       5.09686987      -0.62543473      -0.48504658      -0.55018034
Cl       5.20643609       4.75344298       0.00743284      -0.26436263      -0.00645373      -0.15655319
52
Lattice="10.279498 0.0 0.0 0.0 10.279498 0.0 0.0 0.0 10.279498" Properties=species:S:1:pos:R:3:dft_forces:R:3 spacegroup="_JSON {\"number\": 1, \"setting\": 1}" unit_cell=conventional occupancy="_JSON {\"0\": {\"Li\": 1.0}, \"1\": {\"Li\": 1.0}, \"2\": {\"Li\": 1.0}, \"3\": {\"Li\": 1.0}, \"4\": {\"Li\": 1.0}, \"5\": {\"Li\": 1.0}, \"6\": {\"Li\": 1.0}, \"7\": {\"Li\": 1.0}, \"8\": {\"Li\": 1.0}, \"9\": {\"Li\": 1.0}, \"10\": {\"Li\": 1.0}, \"11\": {\"Li\": 1.0}, \"12\": {\"Li\": 1.0}, \"13\": {\"Li\": 1.0}, \"14\": {\"Li\": 1.0}, \"15\": {\"Li\": 1.0}, \"16\": {\"Li\": 1.0}, \"17\": {\"Li\": 1.0}, \"18\": {\"Li\": 1.0}, \"19\": {\"Li\": 1.0}, \"20\": {\"Li\": 1.0}, \"21\": {\"Li\": 1.0}, \"22\": {\"Li\": 1.0}, \"23\": {\"Li\": 1.0}, \"24\": {\"P\": 1.0}, \"25\": {\"P\": 1.0}, \"26\": {\"P\": 1.0}, \"27\": {\"P\": 1.0}, \"28\": {\"S\": 1.0}, \"29\": {\"S\": 1.0}, \"30\": {\"S\": 1.0}, \"31\": {\"S\": 1.0}, \"32\": {\"S\": 1.0}, \"33\": {\"S\": 1.0}, \"34\": {\"S\": 1.0}, \"35\": {\"S\": 1.0}, \"36\": {\"S\": 1.0}, \"37\": {\"S\": 1.0}, \"38\": {\"S\": 1.0}, \"39\": {\"S\": 1.0}, \"40\": {\"S\": 1.0}, \"41\": {\"S\": 1.0}, \"42\": {\"S\": 1.0}, \"43\": {\"S\": 1.0}, \"44\": {\"S\": 1.0}, \"45\": {\"S\": 1.0}, \"46\": {\"S\": 1.0}, \"47\": {\"S\": 1.0}, \"48\": {\"Cl\": 1.0}, \"49\": {\"Cl\": 1.0}, \"50\": {\"Cl\": 1.0}, \"51\": {\"Cl\": 1.0}}" source=mace_1000K frame_in_traj=300 config_type=Li6PS5Cl_md_snapshot dft_energy=-13988.628837623002 dft_stress="4.32819500e-03 -3.12908115e-03 2.24948616e-04 -1.58841267e-04 -2.94820410e-03 -6.13329287e-04" labelled_by=QE-pw.x-PBE-SSSP pbc="T T T"
Li      -2.37709304       0.71035439       7.58968226      -0.50210431      -0.24988423       0.32907061
Li      -0.83815977      -2.15299403      -1.11549578       0.10290609      -0.08789779       0.16341392
Li      10.42408775       3.38120974      -7.47354516      -0.02164149      -0.16021547      -0.03042541
Li       0.29162499       0.00273709       2.55408484       0.66955949      -0.04679459      -0.24753501
Li       2.67305519       4.77550996       1.51295080       0.36129064       0.05709006       0.49692122
Li       2.24679541      -8.56278465      10.54462979       0.00775110      -0.14816753      -0.41817656
Li       2.69186524       7.44408329       9.82963854      -0.14425097       0.45566170       0.93122143
Li      -4.76475926      13.10027321       7.77073591       1.62194109       0.77048608      -0.73822517
Li       5.16831564       7.38268521       8.19336875      -0.29223390      -0.21956887      -0.33393308
Li       4.43079769      11.74059706       2.34034678      -0.16063970       0.18609568       0.61335131
Li       1.30040925       3.93392214       6.34419785       0.99593892       0.30241932       0.66594889
Li       0.90678360       7.06637311       5.99530570       0.88035318       0.42081914       0.17604112
Li       6.49834830       4.96557487      11.43243306       0.13565680       0.12827979       0.11324861
Li       7.47676994       2.94584482       4.45334098      -0.34402363      -0.44644198       0.36168351
Li      12.58730460       2.19974413      15.16351324       0.88644438      -0.38380631      -0.92351789
Li      20.09061163       2.74377942       7.51627881       1.52060312      -0.33466070       0.84102404
Li      13.91021758       4.93508156       8.62273671      -0.70009185       0.37480668      -0.59560273
Li       5.64044727       8.20158775      11.49099867      -0.11420403      -0.66416557      -0.01462906
Li       4.76354962       8.01412615       4.25282214       0.65744033       0.25845115      -0.23304299
Li       7.90790216      10.16083080       1.96089941      -0.00200263      -0.59373405      -0.04966703
Li       8.71216265       6.24456154       2.94758204      -0.03108104       0.42191597      -0.24896892
Li       7.30538627       9.32383566       4.86927168      -0.34618464      -0.01835125      -0.51485107
Li      13.86515570       9.60704427      -3.53304706      -0.26264513       0.10260321       0.13632889
Li       8.02042261       4.93874864       6.50226439      -0.16861654       0.86414083       0.45149651
P        5.45197844       0.06083644      -0.08050421      -1.06883252       2.51323534      -1.06017356
P        4.72808033       5.04413770       5.05375545      -0.30820225       2.09572573       0.74030339
P       -0.11004111      -0.14137729       5.48429008       2.05779321       0.04982489      -1.11077750
P       -0.07989868       4.87093124      -0.34290197       0.45915120       1.24962041       0.59764470
S        1.40043495       3.65594842       8.85848965      -1.52503596       0.06953883       0.56018142
S        8.95585973       4.20366517       1.19176288      -0.21091582      -1.17068883       1.00118706
S        4.63127444       1.15387548       8.57488832      -1.59594364      -1.38446320       0.92040968
S        6.42690814       1.51401762       1.01006613       0.37830029      -0.29901904      -0.02313350
S        2.19790357       2.67883588       2.30952738       0.22324220      -0.59173348       0.71724754
S        1.32279112       9.02576297       4.23281942      -1.61627721       0.35875297       1.49754366
S        8.87013376       8.98103974       6.72830846       0.94094225       0.74931922      -1.06933132
S        5.47732368       4.16636429       3.48356441       1.90604876      -1.79376663      -1.57467187
S        3.33792855       6.23690540       4.25223968      -1.62909056       0.13859454      -0.41986629
S        2.71879180       7.05189578       7.79417829       0.17768611       0.72052466      -1.54395208
S        6.03137654       6.40497586       5.94206504       0.53645913      -0.46299526       0.64608197
S        3.94701957       3.68031579       6.38372078      -0.78455413      -0.32364532       0.19036088
S        9.06100820       1.01066178       3.91384039       0.26159509      -0.21514914       1.31947703
S        1.39598557       1.04353515       6.68768773      -1.97133936      -0.31876614      -0.65243620
S        7.91159591       2.80186989       6.83495525      -1.99073936      -0.53016070      -0.42844349
S        6.70471696       9.18514720       9.04386063      -0.08982895      -1.03075500       0.81204925
S        3.79551214       9.75645707       1.12495089       0.73337041      -0.66095657      -0.99262014
S        8.66187375       5.83541892       9.00341195       0.22082228       0.15555457      -1.32443643
S        1.09789144       6.20460342       0.68570135      -0.45073187       0.23649701       0.35669377
S        7.03760335       7.98257406       2.86944582       0.45285637      -0.00932848       0.23896064
Cl      -0.33998789      -0.69215443       0.55382591      -0.02405807       0.38700656      -0.08318419
Cl      -0.19822490       5.18609192       5.46825717      -0.41826758       0.03876247      -0.94508970
Cl       5.05117215       0.37920151       4.72707955      -0.10203140      -0.64753619       0.26633903
Cl       4.64572312       6.05829213       0.07625317       0.68741554      -0.31307398       0.43246109
52
Lattice="10.279498 0.0 0.0 0.0 10.279498 0.0 0.0 0.0 10.279498" Properties=species:S:1:pos:R:3:dft_forces:R:3 spacegroup="_JSON {\"number\": 1, \"setting\": 1}" unit_cell=conventional occupancy="_JSON {\"0\": {\"Li\": 1.0}, \"1\": {\"Li\": 1.0}, \"2\": {\"Li\": 1.0}, \"3\": {\"Li\": 1.0}, \"4\": {\"Li\": 1.0}, \"5\": {\"Li\": 1.0}, \"6\": {\"Li\": 1.0}, \"7\": {\"Li\": 1.0}, \"8\": {\"Li\": 1.0}, \"9\": {\"Li\": 1.0}, \"10\": {\"Li\": 1.0}, \"11\": {\"Li\": 1.0}, \"12\": {\"Li\": 1.0}, \"13\": {\"Li\": 1.0}, \"14\": {\"Li\": 1.0}, \"15\": {\"Li\": 1.0}, \"16\": {\"Li\": 1.0}, \"17\": {\"Li\": 1.0}, \"18\": {\"Li\": 1.0}, \"19\": {\"Li\": 1.0}, \"20\": {\"Li\": 1.0}, \"21\": {\"Li\": 1.0}, \"22\": {\"Li\": 1.0}, \"23\": {\"Li\": 1.0}, \"24\": {\"P\": 1.0}, \"25\": {\"P\": 1.0}, \"26\": {\"P\": 1.0}, \"27\": {\"P\": 1.0}, \"28\": {\"S\": 1.0}, \"29\": {\"S\": 1.0}, \"30\": {\"S\": 1.0}, \"31\": {\"S\": 1.0}, \"32\": {\"S\": 1.0}, \"33\": {\"S\": 1.0}, \"34\": {\"S\": 1.0}, \"35\": {\"S\": 1.0}, \"36\": {\"S\": 1.0}, \"37\": {\"S\": 1.0}, \"38\": {\"S\": 1.0}, \"39\": {\"S\": 1.0}, \"40\": {\"S\": 1.0}, \"41\": {\"S\": 1.0}, \"42\": {\"S\": 1.0}, \"43\": {\"S\": 1.0}, \"44\": {\"S\": 1.0}, \"45\": {\"S\": 1.0}, \"46\": {\"S\": 1.0}, \"47\": {\"S\": 1.0}, \"48\": {\"Cl\": 1.0}, \"49\": {\"Cl\": 1.0}, \"50\": {\"Cl\": 1.0}, \"51\": {\"Cl\": 1.0}}" source=mace_1000K frame_in_traj=400 config_type=Li6PS5Cl_md_snapshot dft_energy=-13989.464393641347 dft_stress="3.47522657e-03 1.75276289e-03 -5.43273861e-03 3.28700426e-04 -2.15032513e-03 -2.38445533e-03" labelled_by=QE-pw.x-PBE-SSSP pbc="T T T"
Li      -5.17276544       2.52729456       7.65737929       0.00756161       0.15074918      -0.07808620
Li      -2.73693073      -9.55612924      -5.12726438      -0.37689107       0.97995772      -0.04248157
Li       7.00739647       7.93459157      -5.71352453       0.60737787       1.24369274      -1.32482750
Li       0.73683567       2.16702714       1.88766356      -0.08912086      -0.08394086       0.28115476
Li       2.53591587       4.61355132       3.67104309      -0.25189072       0.45140035      -0.17518571
Li       5.35029901      -5.80814059      12.77123529      -0.97377910       0.31173263      -0.51714629
Li      -4.28751341      10.18665825       7.39523327       0.66001247       0.27230296       0.35678350
Li      -9.74847071       7.67341480       5.64321463       0.09238179      -0.12772829       0.89589164
Li       0.81011906       7.35389479       9.48023177      -0.12836284       0.12984122       0.34873106
Li       3.68357865      12.96131220       0.85232287       0.12407758      -0.20446184      -1.00008971
Li      -2.13879391       4.40117145       6.88172636      -0.05293541      -0.12297021      -0.05544250
Li       2.71803514      12.66646580       5.13600493       1.15501796       0.65346207      -1.11533967
Li       5.72593838       7.69425603      12.26764881      -1.15815933      -0.43464705      -0.10505630
Li       7.63782777       2.10473314      -0.55150141      -0.53284442      -0.14328218      -0.18152605
Li      13.75031272       9.36906287      16.75040081      -0.60946586      -0.24193489       0.06172293
Li      17.86610847       5.61848760      10.67151923       0.71386474       0.05068930      -0.15925747
Li      14.77523801      17.26839873       8.85265554      -0.20523677       0.02606353      -0.04900240
Li      11.94547104       5.17775735      17.71897597      -0.06970466       0.69131848      -0.04031901
Li       7.83887175       8.91084312       0.86463692       0.73572451       0.51741806      -0.03434531
Li      10.09683417       6.95364288       2.92542870      -0.10811643       0.33996489      -0.17780104
Li       8.11087808       4.72289410       3.10119526       0.77922732       0.47973005      -0.10037124
Li       3.45103019      10.05273919       2.86989328      -0.11288557       0.75591693       0.32159641
Li      12.33778051       9.61210357      -1.32335075      -0.87746943       0.14298496       0.35582808
Li       9.83143520       1.38964259       8.41444869      -0.06000106      -0.05098189      -0.65487592
P        4.80636990      -0.50989994      -0.07324773       1.19900491       1.82565242       0.63218259
P        5.21757492       5.27070419       5.30257252      -2.33721068       0.49643940      -1.90704249
P       -0.00378457       0.08183229       4.99108644      -0.68014755       1.92897915       0.49168208
P        0.52038287       4.44490293      -0.25888986      -2.75894796      -1.06060859       0.75507103
S        1.46122306       2.61618131       9.34746103       0.49665511       2.57054163       0.27376824
S        9.09600493       3.45068984       0.69498796       0.16832755       0.24111625       0.59992913
S        3.92317768       0.40833211       8.60039084       0.30260856       1.21864633      -0.51951171
S        5.64612039       1.02738092       1.17700789      -0.11111254      -1.04882111      -0.82677113
S        3.05662891       2.53827768       2.85040659      -0.57249906      -0.06369548       0.74788094
S        1.12042198       9.07767613       3.96719380       0.60676492      -0.93483254      -1.29971399
S        8.75801429       9.42975766       6.11455157       1.42674345      -1.01811289      -0.20196761
S        6.40146894       3.89347530       4.34761868      -0.41349818      -0.92326360       0.53358027
S        3.98525959       6.62309332       3.86351606       1.10709440      -1.75904928       0.69066130
S        2.33454177       7.72097869       7.89536070       0.31711395      -1.04586229      -1.09726713
S        6.51791757       6.57090895       5.99641907       0.22828208      -0.87132963       3.30304224
S        3.54286115       4.13620778       6.48609592       1.93997524       0.65048087      -0.52807322
S        9.44660906       1.71977379       4.09976639      -0.68468863      -0.42057334      -1.27393508
S        1.35849338       1.20410881       6.04757256      -0.58623723      -1.64221244       2.57917745
S        7.38247831       2.09359163       7.26187414       0.04182311       0.21845969       1.17973989
S        6.38530954       8.73467269       9.39211307      -0.39936843      -0.53709085      -0.34065986
S        3.42283989       8.70805098       0.94383045       0.28575909      -0.40170299       0.07292883
S        9.59941662       5.71591478       8.75520990       0.67572036      -0.84578033      -0.52845092
S        1.21623080       5.70864905       1.16804383       0.94275077      -0.25215786      -0.44786612
S        7.81630842       7.13017803       2.24025604       0.48642598      -0.29504694       0.66381693
Cl      -0.08115453      -0.18846752      -0.20475061      -0.23616842      -0.50568766       0.11205845
Cl      -0.06951529       5.67977158       4.79222794       0.02829165      -0.59671576       0.09122814
Cl       5.36011580      -0.32301093       5.26824376      -0.20568028      -0.16011082      -0.67770731
Cl       5.42183588       5.39565849       0.13661887      -0.53616397      -0.55493894       0.11166455
52
Lattice="10.279498 0.0 0.0 0.0 10.279498 0.0 0.0 0.0 10.279498" Properties=species:S:1:pos:R:3:dft_forces:R:3 spacegroup="_JSON {\"number\": 1, \"setting\": 1}" unit_cell=conventional occupancy="_JSON {\"0\": {\"Li\": 1.0}, \"1\": {\"Li\": 1.0}, \"2\": {\"Li\": 1.0}, \"3\": {\"Li\": 1.0}, \"4\": {\"Li\": 1.0}, \"5\": {\"Li\": 1.0}, \"6\": {\"Li\": 1.0}, \"7\": {\"Li\": 1.0}, \"8\": {\"Li\": 1.0}, \"9\": {\"Li\": 1.0}, \"10\": {\"Li\": 1.0}, \"11\": {\"Li\": 1.0}, \"12\": {\"Li\": 1.0}, \"13\": {\"Li\": 1.0}, \"14\": {\"Li\": 1.0}, \"15\": {\"Li\": 1.0}, \"16\": {\"Li\": 1.0}, \"17\": {\"Li\": 1.0}, \"18\": {\"Li\": 1.0}, \"19\": {\"Li\": 1.0}, \"20\": {\"Li\": 1.0}, \"21\": {\"Li\": 1.0}, \"22\": {\"Li\": 1.0}, \"23\": {\"Li\": 1.0}, \"24\": {\"P\": 1.0}, \"25\": {\"P\": 1.0}, \"26\": {\"P\": 1.0}, \"27\": {\"P\": 1.0}, \"28\": {\"S\": 1.0}, \"29\": {\"S\": 1.0}, \"30\": {\"S\": 1.0}, \"31\": {\"S\": 1.0}, \"32\": {\"S\": 1.0}, \"33\": {\"S\": 1.0}, \"34\": {\"S\": 1.0}, \"35\": {\"S\": 1.0}, \"36\": {\"S\": 1.0}, \"37\": {\"S\": 1.0}, \"38\": {\"S\": 1.0}, \"39\": {\"S\": 1.0}, \"40\": {\"S\": 1.0}, \"41\": {\"S\": 1.0}, \"42\": {\"S\": 1.0}, \"43\": {\"S\": 1.0}, \"44\": {\"S\": 1.0}, \"45\": {\"S\": 1.0}, \"46\": {\"S\": 1.0}, \"47\": {\"S\": 1.0}, \"48\": {\"Cl\": 1.0}, \"49\": {\"Cl\": 1.0}, \"50\": {\"Cl\": 1.0}, \"51\": {\"Cl\": 1.0}}" source=mace_1000K frame_in_traj=500 config_type=Li6PS5Cl_md_snapshot dft_energy=-13989.193135464657 dft_stress="8.29188142e-03 1.13429192e-02 1.46225782e-02 5.50894569e-04 7.75843185e-04 4.74228408e-03" labelled_by=QE-pw.x-PBE-SSSP pbc="T T T"
Li      -1.57861486       3.26087078       5.29802968       0.10594282       0.03411905      -0.05185427
Li      -3.93980278      -6.92017092      -2.86497489      -0.51736869       0.42506069      -0.00846021
Li      12.77631655       6.49016287      -4.97400872       0.20256899       0.17549733       0.06931874
Li       1.88596179      -0.08561476       1.58500631       0.40977882       0.40182769      -0.19702441
Li       4.60247099       2.94964325       1.22280413       0.08809474      -0.58741171       0.48247985
Li       5.52838982      -1.81884988      13.75988212       0.14990920      -0.01897963      -0.21180954
Li      -3.00939137      12.65417236       9.98302642       0.42409113       0.46153204      -0.56373108
Li     -10.14351536       7.59843310       6.95253634       0.49485483      -0.31085794       0.55133502
Li       2.07072029       4.60243064      13.66317798      -0.07670398      -0.90478920      -0.39288847
Li       4.86096976      17.09465988       8.14294105       0.81084649      -0.35675111      -0.28535774
Li       0.14246915       1.64821668       8.22067641       0.36653904      -0.19784845       0.33002912
Li      -0.62496166      11.92863046       1.57647596       0.52898288       0.92393698      -0.12025358
Li       8.74047427       9.51971118      12.56481637      -0.11243768      -0.16125985       0.17969414
Li       8.93262950       4.45391520      -2.31310030       0.34558300       0.40461733       0.13728534
Li      18.23073765       7.34651853      15.02462605       0.03563703      -0.51810788      -0.55305560
Li      18.40996878      10.10937068       8.64804789       0.15994447      -0.13364440      -0.24020788
Li      13.16337632      17.10297460      10.08047405      -0.11339002       0.34211999      -0.21603077
Li      11.74802558       5.02607672      17.66516333       0.55663355       0.22743079      -0.09166471
Li       6.95687538       6.92426371       0.15183927       0.34896169       0.03832486       0.11814270
Li       6.35641392       5.55823116       2.90408601       0.90726414       0.27266343      -0.83041438
Li      13.26562924       0.76713975       4.74032807       0.47030645       0.53498435      -0.52639661
Li       2.57172638      13.97627529       0.23752254      -0.33129513      -0.30199895       0.18516776
Li      14.22656898       9.47326189      -2.71426874      -0.34161194      -0.33049629       0.14213598
Li       7.33241077       0.83646477       5.91495103       0.04641715      -0.42019770      -0.08766896
P        5.15208962      -0.24592706       0.22655442      -1.57595768       0.55571130      -1.06205484
P        4.82669662       4.77648384       4.61162171      -0.56760265      -1.15781943       0.74142413
P        0.14115775      -0.29092946       5.12888157      -2.95018558      -0.52346375      -0.98080952
P       -0.15164210       5.42566250       0.18353269      -2.03821683      -2.07315144      -1.14815748
S        0.74257945       3.84582434       9.24676475       0.10852138       0.94988764       0.25249107
S        8.29448496       4.09096486       0.87369726       1.78762015       1.39496308       0.61389510
S        3.65211702       0.72764368       9.34248283       0.65916734       0.40812972       1.01374998
S        6.43346824       1.03691118       1.27243787      -0.28238220      -0.72066042      -0.30607029
S        2.24449811       2.33568614       2.11564324      -0.09810661      -0.00281947       0.24191895
S        0.67890024       8.59982453       3.70001362       0.35198608       0.97257968       0.60224209
S        8.60445012       8.84000299       6.27711642       1.33915651       1.62210770      -0.09355782
S        5.57193835       3.25986589       3.38372250       0.46822514       0.81042843       0.95167455
S        4.02153700       6.23981956       3.34592455       0.51396069       0.27123133       0.46502540
S        2.82286685       7.04427070       7.51759598      -1.23723335       0.66471810       0.38769896
S        6.38321668       5.46120963       5.97690667      -0.71125661      -0.21503936      -0.86413697
S        3.15775567       4.04455750       5.59352496       0.41087694      -0.21676199      -0.09412269
S        8.94982285       1.21520833       3.94822083       1.06563381      -0.89467011       0.91559246
S        1.45533222       0.40594020       6.47526161      -0.29389689       0.02821786      -0.09162692
S        8.34483459       2.31388542       7.83178548      -1.62610114      -0.70975226      -1.16996147
S        5.99480940       9.02669600       8.80000404       0.59670831      -0.66905529       1.43737394
S        4.09957808       8.91410853       1.64617591       0.04996708      -0.01558731      -0.84917907
S        9.14540019       6.61842351       8.95041481       0.60501991      -0.11517591       1.21744666
S        1.20194746       6.18398438       1.52594075      -0.45308031      -0.16677229      -0.74289275
S        7.58730851       7.61903663       2.41820783      -0.78406691      -0.52750244       0.37083509
Cl      -0.20083977      -0.02127782      -0.38228158      -0.01732641       0.11418681       0.84179563
Cl      -0.13088245       5.09612459       5.63478565      -0.06469924       0.19991201       0.09176987
Cl       5.03625764      -0.03603459       5.76985865       0.12912851       0.16363863      -0.89300301
Cl       5.25042678       4.89798230      -0.74948801      -0.34540868      -0.14725325       0.33186771
52
Lattice="10.279498 0.0 0.0 0.0 10.279498 0.0 0.0 0.0 10.279498" Properties=species:S:1:pos:R:3:dft_forces:R:3 spacegroup="_JSON {\"number\": 1, \"setting\": 1}" unit_cell=conventional occupancy="_JSON {\"0\": {\"Li\": 1.0}, \"1\": {\"Li\": 1.0}, \"2\": {\"Li\": 1.0}, \"3\": {\"Li\": 1.0}, \"4\": {\"Li\": 1.0}, \"5\": {\"Li\": 1.0}, \"6\": {\"Li\": 1.0}, \"7\": {\"Li\": 1.0}, \"8\": {\"Li\": 1.0}, \"9\": {\"Li\": 1.0}, \"10\": {\"Li\": 1.0}, \"11\": {\"Li\": 1.0}, \"12\": {\"Li\": 1.0}, \"13\": {\"Li\": 1.0}, \"14\": {\"Li\": 1.0}, \"15\": {\"Li\": 1.0}, \"16\": {\"Li\": 1.0}, \"17\": {\"Li\": 1.0}, \"18\": {\"Li\": 1.0}, \"19\": {\"Li\": 1.0}, \"20\": {\"Li\": 1.0}, \"21\": {\"Li\": 1.0}, \"22\": {\"Li\": 1.0}, \"23\": {\"Li\": 1.0}, \"24\": {\"P\": 1.0}, \"25\": {\"P\": 1.0}, \"26\": {\"P\": 1.0}, \"27\": {\"P\": 1.0}, \"28\": {\"S\": 1.0}, \"29\": {\"S\": 1.0}, \"30\": {\"S\": 1.0}, \"31\": {\"S\": 1.0}, \"32\": {\"S\": 1.0}, \"33\": {\"S\": 1.0}, \"34\": {\"S\": 1.0}, \"35\": {\"S\": 1.0}, \"36\": {\"S\": 1.0}, \"37\": {\"S\": 1.0}, \"38\": {\"S\": 1.0}, \"39\": {\"S\": 1.0}, \"40\": {\"S\": 1.0}, \"41\": {\"S\": 1.0}, \"42\": {\"S\": 1.0}, \"43\": {\"S\": 1.0}, \"44\": {\"S\": 1.0}, \"45\": {\"S\": 1.0}, \"46\": {\"S\": 1.0}, \"47\": {\"S\": 1.0}, \"48\": {\"Cl\": 1.0}, \"49\": {\"Cl\": 1.0}, \"50\": {\"Cl\": 1.0}, \"51\": {\"Cl\": 1.0}}" source=mace_1000K frame_in_traj=600 config_type=Li6PS5Cl_md_snapshot dft_energy=-13988.006490824606 dft_stress="6.74570400e-03 1.01364601e-03 8.81339495e-03 -6.84486502e-03 5.69257721e-04 -1.03054011e-02" labelled_by=QE-pw.x-PBE-SSSP pbc="T T T"
Li      -5.26272539       8.13292967       3.50783801       0.48882996      -0.27756241      -0.38230350
Li      -3.32255466      -5.98617191      -1.99460706      -0.27521114      -0.33024586      -0.58946140
Li      13.53251855       4.18978061      -2.27242902      -0.15901347       0.89960277       0.77135615
Li       2.19580450      -0.33168274       1.78043761      -0.01353120       0.24249719       0.06846668
Li       4.82647454       1.93463009       3.13681100       0.37179206      -0.36621714      -0.08695060
Li       7.02529988      -0.29269443      13.65741627      -0.22476018       0.17475891      -0.04732424
Li      -0.31669625      11.26333425       8.80214388       0.24601292      -0.20581218      -0.43004914
Li     -10.94648541       4.20382519       7.62105357      -0.17764292      -1.14340274       0.82665132
Li       0.36179907       2.08638520      12.30829378       0.45319884       0.39273549      -0.41922120
Li      -0.07141592      17.64111204       8.32805343       0.49293036      -0.05568187       0.06951569
Li      -2.23390954       2.27571877       9.83503605      -0.49531017      -0.09413631       0.52989793
Li       1.58136353      12.67001698       4.52815408       0.47383194      -0.14965157       0.03849096
Li      12.90624487       9.22018112      16.58258775       0.12875005       0.02438768       0.27704048
Li       6.99478237       5.53444902      -7.90106366       0.11572253       0.09772532       0.47861831
Li      20.31259343       8.14284973      12.20198400      -0.49191194      -0.20385146      -0.09637523
Li      15.35532996      12.10834770       7.05993894       0.10676969      -0.32963702       0.08860047
Li      12.13096943      16.80760075       5.44542978       0.21383145      -0.04135028       0.18331554
Li      13.04065872       7.92564901      20.06465701      -0.75191861       0.12477924      -0.10540700
Li       7.23573307       7.54819192       0.37355982       0.01991756       0.26544506      -0.41799607
Li       8.24209006       6.95231326       5.21134401      -0.50243624       0.20659328      -0.75674894
Li      12.94843666       4.38042137       2.00944068       0.04299322       0.23716267      -0.05609401
Li       3.48962753      12.50568968       0.56972784       0.49629542       0.14170327      -0.93396145
Li      15.34929268       7.58912398      -2.03388859      -0.40826804      -0.46446696      -0.63976194
Li       8.01666313       1.73587480       5.41761227       0.14088180       0.08974616      -0.16851730
P        5.24342559      -0.26703970      -0.28808213      -0.42413638       2.22683682      -0.63599991
P        4.87077466       4.61501181       4.82459241      -0.05266339       0.99945002      -1.18512403
P       -0.15368565      -0.38819080       4.77913140      -0.53569500      -0.11208287      -0.39685337
P       -0.41515585       5.03726877       0.48205512       1.28064977      -0.18753318      -0.04504958
S        0.66522993       3.30436290       9.89825014      -1.69485526      -0.09682029       0.33848676
S        9.60481139       5.05925700       2.52757653      -0.88513312      -1.21814368      -0.88835677
S        3.60384797       0.82937731       8.88986924       0.99487808      -1.13507365      -0.65703564
S        5.87158788       1.58242301       0.64918128       0.86016642      -1.54966661       0.19800708
S        2.71143120       1.88776314       2.51808603      -1.82092982       0.40063984       0.73893402
S        1.24214129       8.64119288       3.78520453      -0.29169140       0.09793255       0.94835140
S        8.80600667       9.01917235       6.14093507       0.02815718       0.19449418      -1.10131764
S        6.42398988       3.44302855       4.04404550      -0.91900714      -0.37866359      -0.95419500
S        3.76575863       6.12641540       3.57940507       0.02485717      -1.99995522       0.60496026
S        2.85802904       7.01771989       7.83294243      -0.21625060       0.05146577      -1.68610503
S        6.08671549       5.79711768       5.81041739       0.53315192       1.38064460       2.49112360
S        3.43480134       3.49669035       5.81310871       0.26722092      -0.33636791       0.15454670
S        9.14168273       0.65589427       2.98609137       0.35266151      -0.29127745       2.23936118
S        0.68050115       0.88505934       6.16964636       0.94214733       0.40859483      -0.67900263
S        7.98076003       2.03606489       7.65456702      -0.45523284       1.15742940       0.22567858
S        6.73522152       9.04449189       8.76735794      -1.15557563       0.71453939       1.21694555
S        4.16536211       8.78588268       0.97374485       0.90616011      -0.07151729       0.21813805
S        8.40190122       5.77986645       9.30285114      -0.07487027      -0.45609236       1.23756014
S        1.04117739       6.34358389       0.28072374       0.52918677       0.77775485       0.16599299
S        7.40505265       8.01227850       2.51977152       0.10497891      -1.36217174       0.34790394
Cl       0.47154586      -0.86313809      -0.06442855      -0.16807301       0.59861607      -0.19365729
Cl      -0.54378175       5.68581709       6.19203322       1.02819932       0.33332347      -0.71801064
Cl       4.80533736      -0.13012123       4.45260169       0.35062365       0.21826198       0.53813138
Cl       4.29702593       4.37193366       0.37340447       0.19932169       0.40026137      -0.72519610
52
Lattice="10.279498 0.0 0.0 0.0 10.279498 0.0 0.0 0.0 10.279498" Properties=species:S:1:pos:R:3:dft_forces:R:3 spacegroup="_JSON {\"number\": 1, \"setting\": 1}" unit_cell=conventional occupancy="_JSON {\"0\": {\"Li\": 1.0}, \"1\": {\"Li\": 1.0}, \"2\": {\"Li\": 1.0}, \"3\": {\"Li\": 1.0}, \"4\": {\"Li\": 1.0}, \"5\": {\"Li\": 1.0}, \"6\": {\"Li\": 1.0}, \"7\": {\"Li\": 1.0}, \"8\": {\"Li\": 1.0}, \"9\": {\"Li\": 1.0}, \"10\": {\"Li\": 1.0}, \"11\": {\"Li\": 1.0}, \"12\": {\"Li\": 1.0}, \"13\": {\"Li\": 1.0}, \"14\": {\"Li\": 1.0}, \"15\": {\"Li\": 1.0}, \"16\": {\"Li\": 1.0}, \"17\": {\"Li\": 1.0}, \"18\": {\"Li\": 1.0}, \"19\": {\"Li\": 1.0}, \"20\": {\"Li\": 1.0}, \"21\": {\"Li\": 1.0}, \"22\": {\"Li\": 1.0}, \"23\": {\"Li\": 1.0}, \"24\": {\"P\": 1.0}, \"25\": {\"P\": 1.0}, \"26\": {\"P\": 1.0}, \"27\": {\"P\": 1.0}, \"28\": {\"S\": 1.0}, \"29\": {\"S\": 1.0}, \"30\": {\"S\": 1.0}, \"31\": {\"S\": 1.0}, \"32\": {\"S\": 1.0}, \"33\": {\"S\": 1.0}, \"34\": {\"S\": 1.0}, \"35\": {\"S\": 1.0}, \"36\": {\"S\": 1.0}, \"37\": {\"S\": 1.0}, \"38\": {\"S\": 1.0}, \"39\": {\"S\": 1.0}, \"40\": {\"S\": 1.0}, \"41\": {\"S\": 1.0}, \"42\": {\"S\": 1.0}, \"43\": {\"S\": 1.0}, \"44\": {\"S\": 1.0}, \"45\": {\"S\": 1.0}, \"46\": {\"S\": 1.0}, \"47\": {\"S\": 1.0}, \"48\": {\"Cl\": 1.0}, \"49\": {\"Cl\": 1.0}, \"50\": {\"Cl\": 1.0}, \"51\": {\"Cl\": 1.0}}" source=mace_1000K frame_in_traj=700 config_type=Li6PS5Cl_md_snapshot dft_energy=-13988.598870950464 dft_stress="-3.10979984e-03 2.35507428e-03 -1.06864365e-02 1.12896660e-02 -2.29723035e-03 5.84866401e-04" labelled_by=QE-pw.x-PBE-SSSP pbc="T T T"
Li      -7.17628784      10.60451482       3.40401668      -0.21157839       0.06251277      -0.58216152
Li      -1.85598237     -11.42580202      -6.26973152      -0.70541095      -0.18233338      -0.68737055
Li       9.64884814      10.89773211       1.52842201       0.34589565      -0.00919529       0.47638119
Li       2.87288559       3.12142134       4.78198011      -0.16293441      -0.35317393      -0.65594061
Li       3.71558803       4.22147310       1.72940899       0.01759329       0.16957222      -0.13712876
Li       1.10583262      -0.84517920      18.00695988       0.19464511      -0.25683726      -0.21806631
Li      -2.08133521      10.40077399       8.79035106       0.14893192       0.62865426      -0.18579666
Li      -8.14624100       0.77949247      10.27353468       0.33646690       0.44854180       0.34851329
Li       0.72734592       3.71735443      12.90026880       0.14416535      -0.31094382      -0.35678659
Li       7.65387613      14.62142151       7.25815514      -0.08889024       0.39981194       0.02245190
Li      -0.36181297       2.89872023       7.07008020      -0.28550661      -0.62820741      -0.20681311
Li      -4.86412819      10.59281760       2.54720688       0.12446968       0.27811134      -2.39117839
Li      14.03284382       5.57780150      18.94669557      -0.24134123       0.16689776       0.06238396
Li       5.30941639       7.88995456      -5.88461059       0.18987494      -0.53248961      -0.11169643
Li      22.17983701       5.39016602      17.02963180       0.82453941      -0.56149628       0.19255943
Li      17.61832817      15.37543051      12.21117755      -0.27030188      -0.35008218      -0.13123296
Li      12.35184786      18.07796650      10.40382724      -0.02889277      -0.19687451      -0.22283982
Li      10.03286201       6.61221559      17.35754141      -0.16567315       0.65070122       0.62289602
Li       6.64678785      11.16789743      -4.47561748       0.96386441       1.00211677       1.08956076
Li       6.94456603       7.48197588       0.56003929      -0.63396565      -0.15212189      -1.58046148
Li       9.71002460       7.39838641       1.84261229      -0.19132581      -0.34115531      -0.23018367
Li       5.63866154      12.98837396      -1.47722086       0.16764981      -0.35490171      -0.30338863
Li      14.33056941       8.16090117      -2.62613220       0.08229844       0.22946633       0.00465601
Li       8.25180668      -3.95892944       4.65398009      -0.44857163      -0.21588139      -0.11153625
P        5.07467993      -0.15494496      -0.43406860      -0.99383499       1.43499772       1.30191022
P        4.70154293       5.04697209       5.63464522       2.56733804       1.22489077      -0.63971541
P        0.65708498      -0.36635390       4.38841332      -1.37192419       0.10238364       0.23504665
P       -0.23493121       4.31112443      -0.16692713      -0.25791610       0.82927950      -0.65224234
S        0.95144853       3.30357471       8.81694876       0.73383218       0.16079628      -0.15203833
S       11.21231839       5.66325965       0.85222031       0.40761035      -0.36895587       1.72721080
S        3.92670179       0.45416689       8.30173209      -0.72197400       0.21894332      -0.42066924
S        5.61721109       1.53994284       0.67432633       0.78772173      -0.37493343      -1.00412146
S        2.66316803       2.29664946       2.28959380      -0.29616563       0.20067434       0.43772131
S        1.15070061       8.78660588       2.62276542       0.00458736       1.00978843       2.01179849
S        9.66510017       8.93789097       5.82476089       0.70334635      -1.76382845       0.88416432
S        6.23897830       4.29824748       4.38131357      -0.96190369      -0.16147453       0.54585549
S        3.00782308       5.69370029       4.85427227      -0.58756006       1.50181452      -2.53610968
S        1.96574146       7.22194864       8.17353867       0.18423445      -0.04592145      -0.60686442
S        5.80458025       6.59546137       6.65965560      -0.54668621      -0.24348296      -0.43451155
S        3.75237038       3.87462585       6.91986186       0.54492218      -2.15185831       2.21911682
S        9.38602225       0.95899993       4.08522968      -0.00863454       0.84097185      -1.70960234
S        2.09750655       0.64963561       5.42203426      -0.10690647      -0.73212960       0.50620728
S        7.83000639       2.09707684       7.43147758      -0.79363707      -0.40293069       0.37672935
S        6.41467753       8.91924731       9.04583140       1.50503303      -0.97049348      -0.65232718
S        3.98967687       9.05359343       0.93494349      -0.34002582       0.05276289       0.69600997
S        9.23723509       2.83832582      11.32849120      -0.69330774       1.80958277       0.29484203
S       -1.51183819       5.87376193      -1.02953412      -0.31135751      -1.49739454      -0.24509144
S        7.36852335       7.34278685       2.55910266       1.10969918       0.44082464       2.33335685
Cl       0.05370288      -0.53742760      -0.31915085      -0.10424846       0.11205999      -0.49252926
Cl      -0.36306816       4.59667785       5.60649290      -0.12531145       0.93037785      -0.21775084
Cl       5.38605290      -0.02487063       4.45900168      -0.55158159      -1.12671268       1.25251856
Cl       5.01366380       5.71031153       0.29275507       0.11864793      -0.62072498       0.23426452
52
Lattice="10.279498 0.0 0.0 0.0 10.279498 0.0 0.0 0.0 10.279498" Properties=species:S:1:pos:R:3:dft_forces:R:3 spacegroup="_JSON {\"number\": 1, \"setting\": 1}" unit_cell=conventional occupancy="_JSON {\"0\": {\"Li\": 1.0}, \"1\": {\"Li\": 1.0}, \"2\": {\"Li\": 1.0}, \"3\": {\"Li\": 1.0}, \"4\": {\"Li\": 1.0}, \"5\": {\"Li\": 1.0}, \"6\": {\"Li\": 1.0}, \"7\": {\"Li\": 1.0}, \"8\": {\"Li\": 1.0}, \"9\": {\"Li\": 1.0}, \"10\": {\"Li\": 1.0}, \"11\": {\"Li\": 1.0}, \"12\": {\"Li\": 1.0}, \"13\": {\"Li\": 1.0}, \"14\": {\"Li\": 1.0}, \"15\": {\"Li\": 1.0}, \"16\": {\"Li\": 1.0}, \"17\": {\"Li\": 1.0}, \"18\": {\"Li\": 1.0}, \"19\": {\"Li\": 1.0}, \"20\": {\"Li\": 1.0}, \"21\": {\"Li\": 1.0}, \"22\": {\"Li\": 1.0}, \"23\": {\"Li\": 1.0}, \"24\": {\"P\": 1.0}, \"25\": {\"P\": 1.0}, \"26\": {\"P\": 1.0}, \"27\": {\"P\": 1.0}, \"28\": {\"S\": 1.0}, \"29\": {\"S\": 1.0}, \"30\": {\"S\": 1.0}, \"31\": {\"S\": 1.0}, \"32\": {\"S\": 1.0}, \"33\": {\"S\": 1.0}, \"34\": {\"S\": 1.0}, \"35\": {\"S\": 1.0}, \"36\": {\"S\": 1.0}, \"37\": {\"S\": 1.0}, \"38\": {\"S\": 1.0}, \"39\": {\"S\": 1.0}, \"40\": {\"S\": 1.0}, \"41\": {\"S\": 1.0}, \"42\": {\"S\": 1.0}, \"43\": {\"S\": 1.0}, \"44\": {\"S\": 1.0}, \"45\": {\"S\": 1.0}, \"46\": {\"S\": 1.0}, \"47\": {\"S\": 1.0}, \"48\": {\"Cl\": 1.0}, \"49\": {\"Cl\": 1.0}, \"50\": {\"Cl\": 1.0}, \"51\": {\"Cl\": 1.0}}" source=mace_1000K frame_in_traj=800 config_type=Li6PS5Cl_md_snapshot dft_energy=-13990.337949949086 dft_stress="-7.54725560e-04 6.44179383e-03 7.07532258e-03 -5.41712993e-05 6.16818286e-03 -2.69203813e-03" labelled_by=QE-pw.x-PBE-SSSP pbc="T T T"
Li      -6.94427877      10.19805182       2.41817650      -0.03542029       0.34467181      -0.18287074
Li      -2.91341702     -13.11782261      -5.42300763       0.06554128      -0.25127983       0.52432532
Li       8.01302829       9.78401032      -2.24606065      -0.13353616       0.47716255       0.07868604
Li       3.78536309       1.63594008       4.71124904      -0.42137630       0.74603798      -0.45459598
Li       7.27857602       1.86213044      -0.14234920      -0.55901465       0.37705896      -0.20612226
Li       5.52214584      -1.84503811      23.36516339       0.09909212       0.10139557      -0.18716371
Li      -0.90208447      12.54358926       8.10499092       0.26233094       0.40169476      -0.17595216
Li     -11.04080013      -0.16802195      11.99136080      -0.36337684      -0.15485677       0.24759158
Li       2.97417553       4.43701800      12.31391031       0.46174673       0.34009241      -0.32253641
Li       8.41830418       4.87472365      13.58319078      -0.25180973       0.59928121      -0.01656999
Li      -2.60853661       4.35887077       6.55881614      -0.23413211      -0.12159235      -0.11771359
Li      -9.36999725      13.62895416       3.00140538       0.53923284      -0.18310754       0.07111003
Li      11.78805154       8.56588799      20.96716609       0.39030194      -0.39283268      -0.10773848
Li       7.00721901       1.12299323      -4.85134245       0.11874254       0.16361215      -0.09557150
Li      21.47385652       9.86662009      17.85070606       0.23583547      -0.06705000      -0.40155515
Li      15.85264550      16.05651581      12.48056060       0.02704826      -0.40341663      -0.23392051
Li      10.88794345      16.97812252       8.01712403       0.68115748      -0.61456359      -1.35848658
Li      14.27606050       5.54767669      18.64689847       0.32541167      -0.13729357      -0.03059176
Li       7.91713483      16.58695167      -9.69802826      -0.75547316       1.13479443      -0.06654863
Li       5.02257003       2.14521191      -2.26333829      -1.05789119       0.58579397       0.33012990
Li      10.67711761       8.01677073       5.35383020      -0.19769778      -0.57311766       0.06177101
Li       3.82185412       9.78550942      -3.25719987      -0.15460635      -0.54445372       0.13025826
Li      13.27444939       7.86349508      -5.43902670       0.10011079       0.41076613       0.09428261
Li      12.23616425      -8.27667070       0.21540341       0.44490395       0.13149110       0.13000577
P        5.33651981      -0.94335012      -0.17225740       1.04300965       0.55146615      -0.88467495
P        4.87465646       5.01626336       5.20039844       0.76612575       0.21117679       0.25292867
P        0.01917340       0.53615587       4.68049756       1.10249341       0.19873985       0.17788306
P       -0.12287302       5.18788004       0.16583558       1.55677751       0.78570830       0.17532867
S        1.07465843       4.10084945       9.11356864      -0.16818743       0.39287716       0.18804611
S       11.03311615       5.70441175       2.01196561      -0.02772241      -0.95939352      -0.28852740
S        3.96014424       0.40019038       9.22896018       0.06712328       0.12203381      -0.57374527
S        6.30348593       0.18407252       1.29356180       0.30971226      -0.16807636      -0.35098695
S        3.14628753       2.23114045       2.28692872      -1.10989253      -0.43706183       0.36562501
S        1.01187808       9.36153435       3.41390097      -0.52516633       0.39775172      -0.00751585
S        8.95991030       9.69098344       5.82910335      -0.12927430      -0.25923225      -0.45034903
S        6.12100826       3.91012546       4.07221271       0.92593138      -0.81799853      -0.40255685
S        3.74396173       6.08465955       3.75118321       0.28252670      -0.12420948       0.22200165
S        2.18728708       8.10976519       6.87281226      -0.36189357      -0.47088855       0.61022614
S        5.94401750       6.02471551       6.70031323      -0.58939583       0.59127865      -0.99013568
S        3.66734242       3.81317118       6.23265383      -0.98649217      -0.87402544       0.75622392
S        9.35843262       2.02501209       3.62924080      -0.51813822      -0.92832662      -0.33445553
S        1.35954289       1.40216698       5.97075217      -0.20638142      -0.02662917       0.08831457
S        7.04912201       2.09845503       7.56369378       2.10396406      -0.43145759       0.29755145
S        6.58138488       8.18553101       8.80179067      -1.03057785       1.11224432       1.05750373
S        4.12403931       8.04564164       0.75358144      -1.24348525      -0.71961912       1.12267888
S        8.44658259       4.14169134      10.71197619      -0.07464530      -0.27448300       0.24289880
S       -0.35989417       7.38450789      -0.50896866      -0.73496732      -2.09226888       1.10397873
S        7.35016203       7.16378286       2.65710948       0.65878116      -0.29849454       0.07695440
Cl       0.09598425      -0.03041789      -0.63336499      -0.23399430       1.19207681       0.33604730
Cl      -0.66640024       5.50376155       5.92327592      -0.13602987       0.31663701      -0.16498718
Cl       4.87561439      -0.53469768       4.87876226       0.09427567       0.31308812      -0.20427620
Cl       5.15505073       4.41587949       0.10706307      -0.42159895       0.32679698      -0.13220330
52
Lattice="10.279498 0.0 0.0 0.0 10.279498 0.0 0.0 0.0 10.279498" Properties=species:S:1:pos:R:3:dft_forces:R:3 spacegroup="_JSON {\"number\": 1, \"setting\": 1}" unit_cell=conventional occupancy="_JSON {\"0\": {\"Li\": 1.0}, \"1\": {\"Li\": 1.0}, \"2\": {\"Li\": 1.0}, \"3\": {\"Li\": 1.0}, \"4\": {\"Li\": 1.0}, \"5\": {\"Li\": 1.0}, \"6\": {\"Li\": 1.0}, \"7\": {\"Li\": 1.0}, \"8\": {\"Li\": 1.0}, \"9\": {\"Li\": 1.0}, \"10\": {\"Li\": 1.0}, \"11\": {\"Li\": 1.0}, \"12\": {\"Li\": 1.0}, \"13\": {\"Li\": 1.0}, \"14\": {\"Li\": 1.0}, \"15\": {\"Li\": 1.0}, \"16\": {\"Li\": 1.0}, \"17\": {\"Li\": 1.0}, \"18\": {\"Li\": 1.0}, \"19\": {\"Li\": 1.0}, \"20\": {\"Li\": 1.0}, \"21\": {\"Li\": 1.0}, \"22\": {\"Li\": 1.0}, \"23\": {\"Li\": 1.0}, \"24\": {\"P\": 1.0}, \"25\": {\"P\": 1.0}, \"26\": {\"P\": 1.0}, \"27\": {\"P\": 1.0}, \"28\": {\"S\": 1.0}, \"29\": {\"S\": 1.0}, \"30\": {\"S\": 1.0}, \"31\": {\"S\": 1.0}, \"32\": {\"S\": 1.0}, \"33\": {\"S\": 1.0}, \"34\": {\"S\": 1.0}, \"35\": {\"S\": 1.0}, \"36\": {\"S\": 1.0}, \"37\": {\"S\": 1.0}, \"38\": {\"S\": 1.0}, \"39\": {\"S\": 1.0}, \"40\": {\"S\": 1.0}, \"41\": {\"S\": 1.0}, \"42\": {\"S\": 1.0}, \"43\": {\"S\": 1.0}, \"44\": {\"S\": 1.0}, \"45\": {\"S\": 1.0}, \"46\": {\"S\": 1.0}, \"47\": {\"S\": 1.0}, \"48\": {\"Cl\": 1.0}, \"49\": {\"Cl\": 1.0}, \"50\": {\"Cl\": 1.0}, \"51\": {\"Cl\": 1.0}}" source=mace_1000K frame_in_traj=900 config_type=Li6PS5Cl_md_snapshot dft_energy=-13987.33301002633 dft_stress="6.54921827e-03 7.29200778e-03 3.62304995e-03 -6.32335150e-03 5.70267695e-03 -6.39955858e-04" labelled_by=QE-pw.x-PBE-SSSP pbc="T T T"
Li      -6.96594432      11.21482951       4.01370513       0.14182591       0.24754941       0.15770273
Li       1.28214810     -10.94455361      -1.74370228       0.06602541      -0.14310246      -0.15903096
Li       5.43462103      13.51565146      -2.50694565       0.19933814      -0.28916863      -0.16727803
Li       2.57376280       4.55256477       1.64545188      -0.23825847      -0.18565525       0.18174100
Li       2.57464896       5.97686401      -0.98446838       0.24394653      -0.07497774      -0.00530573
Li       8.08062759      -1.71830957      20.18855309      -0.00602461      -0.52637012       0.45335156
Li      -3.64230479       9.95469063      13.27274577       0.22604599      -0.09143563      -0.22260688
Li      -9.91990166      -2.57882529      13.04860641      -1.07117917      -0.57582863      -0.42174088
Li       0.71174067       3.35707183      14.39173115       0.36999203      -0.16856281      -0.35164824
Li       8.40449301       7.33848106      15.71104385      -0.52840772      -0.76304094      -1.25028864
Li      -2.39668749       2.66606067       5.27103311      -0.08614147       0.10697178      -0.32233020
Li      -8.30387584      12.69456061      -0.25849515      -0.00205585      -0.17367570       0.68341362
Li      13.79750955       8.09644254      15.88115949       0.10707591      -0.11221657       0.11731892
Li       9.95227914       2.17249459      -2.83201161      -0.67969375       0.75218471       0.62598083
Li      25.68096109       6.77064087      18.26075685      -0.49640777       0.23614631       0.31984806
Li      15.75339086      17.78703750      14.16927750       0.78182208       0.53569243       0.20275411
Li      10.78434956      16.98272888       7.64853562      -0.63325088      -0.40925483       0.16215819
Li      15.23618151       3.31401111      22.02208822      -0.20811795      -0.44030707       0.51492949
Li       5.69079214      16.53347618      -8.49430271       0.62006524       0.11875206      -0.41745022
Li       7.73834005       0.17680100      -2.97135545      -0.08539842      -0.75861916      -0.13765455
Li       3.98688354       9.80592144       7.58614090      -0.38619075      -0.24124969      -0.84442227
Li       8.48614423       1.24707798       0.95703667      -0.23942987       0.81891847       0.18238994
Li      12.33458718       6.35845988      -4.93771022      -0.68119141      -0.77426355       0.18853231
Li      11.15345333      -9.52704226       2.21452296       0.14413784       0.15139272      -0.21022728
P        4.93513226       0.04662549      -0.42047465       0.02459414      -0.57799119       3.11578674
P        4.73485701       4.92794742       4.34919720      -2.59296242      -1.54977717       3.32684731
P        0.45324881      -0.12131810       5.23109226      -0.88062083       1.00327582      -1.07206311
P       -0.26593854       5.03613931       0.07118615      -0.69984965      -0.78635930      -0.98539457
S        1.00608325       4.19628315       8.77402915      -0.73980845       0.09715453       0.00255079
S       11.43370458       6.34478372       0.79235188      -0.47748240       0.88489683       0.64037207
S        3.80653325       1.44213505       8.83877125       0.21329898      -0.15382370      -0.35076661
S        6.25276645       1.56273434       1.22018983      -0.03818242      -2.06534017      -1.10405509
S        2.79054167       2.09433147       2.18104967      -0.63900218       0.92102006      -0.75912104
S        1.67480108       8.86277780       4.21863023       0.39051560       0.80237265      -0.87375239
S        9.72280007       8.88083336       6.33571682      -1.59465372      -0.46322434       2.22556952
S        6.35928967       4.39223230       3.50233997       1.47825602      -1.32169435      -2.60297250
S        3.45289611       6.20034808       3.39005455       0.23619773       0.63285390      -0.92461189
S        2.56573848       7.64476411       7.65301867       0.49343429       0.12291673      -0.31988251
S        5.60764506       5.96777296       5.87807860       0.26746312       1.18461547       1.08899974
S        3.37853479       3.51747019       5.32364681       1.01585520       0.84582815      -0.37526793
S        9.18761999       0.91818379       3.74402616       1.64589966      -0.11378134       1.25634668
S        1.45914287       1.16727319       6.51226970       0.08423885      -0.59387109      -1.04670407
S        7.59097325       2.27486564       7.45080546       0.14299396       0.73644031      -0.11673888
S        6.00157030       9.07396004       8.41686664       0.54594110       0.60662531       0.83698998
S        3.83663412       9.00115110       0.83495160       1.05586542       1.10154647      -1.35148495
S        9.71001712       3.54263802      11.77172470      -0.16807327       0.68252530      -0.57352544
S       -1.97201127       5.97148686      -1.00263368       1.72589645      -0.09789578       0.82811993
S        7.76220733       7.78264010       2.76509774      -0.73477192       0.29411183       0.09234554
Cl      -0.33476364       0.27185301      -0.26271351       0.54564106      -0.73005986      -0.36708925
Cl      -0.28574233       5.27908650       4.83973849       0.35649759       0.50703234       0.49000624
Cl       4.77896793      -0.59833785       4.88223734       0.93918388       0.29443631       0.04169892
Cl       4.60595889       4.93676322       0.00354027      -0.15489277       0.49628719      -0.40233985
52
Lattice="10.279498 0.0 0.0 0.0 10.279498 0.0 0.0 0.0 10.279498" Properties=species:S:1:pos:R:3:dft_forces:R:3 spacegroup="_JSON {\"number\": 1, \"setting\": 1}" unit_cell=conventional occupancy="_JSON {\"0\": {\"Li\": 1.0}, \"1\": {\"Li\": 1.0}, \"2\": {\"Li\": 1.0}, \"3\": {\"Li\": 1.0}, \"4\": {\"Li\": 1.0}, \"5\": {\"Li\": 1.0}, \"6\": {\"Li\": 1.0}, \"7\": {\"Li\": 1.0}, \"8\": {\"Li\": 1.0}, \"9\": {\"Li\": 1.0}, \"10\": {\"Li\": 1.0}, \"11\": {\"Li\": 1.0}, \"12\": {\"Li\": 1.0}, \"13\": {\"Li\": 1.0}, \"14\": {\"Li\": 1.0}, \"15\": {\"Li\": 1.0}, \"16\": {\"Li\": 1.0}, \"17\": {\"Li\": 1.0}, \"18\": {\"Li\": 1.0}, \"19\": {\"Li\": 1.0}, \"20\": {\"Li\": 1.0}, \"21\": {\"Li\": 1.0}, \"22\": {\"Li\": 1.0}, \"23\": {\"Li\": 1.0}, \"24\": {\"P\": 1.0}, \"25\": {\"P\": 1.0}, \"26\": {\"P\": 1.0}, \"27\": {\"P\": 1.0}, \"28\": {\"S\": 1.0}, \"29\": {\"S\": 1.0}, \"30\": {\"S\": 1.0}, \"31\": {\"S\": 1.0}, \"32\": {\"S\": 1.0}, \"33\": {\"S\": 1.0}, \"34\": {\"S\": 1.0}, \"35\": {\"S\": 1.0}, \"36\": {\"S\": 1.0}, \"37\": {\"S\": 1.0}, \"38\": {\"S\": 1.0}, \"39\": {\"S\": 1.0}, \"40\": {\"S\": 1.0}, \"41\": {\"S\": 1.0}, \"42\": {\"S\": 1.0}, \"43\": {\"S\": 1.0}, \"44\": {\"S\": 1.0}, \"45\": {\"S\": 1.0}, \"46\": {\"S\": 1.0}, \"47\": {\"S\": 1.0}, \"48\": {\"Cl\": 1.0}, \"49\": {\"Cl\": 1.0}, \"50\": {\"Cl\": 1.0}, \"51\": {\"Cl\": 1.0}}" source=mace_600K frame_in_traj=100 config_type=Li6PS5Cl_md_snapshot dft_energy=-13991.73875471089 dft_stress="4.74320224e-03 3.52480708e-03 7.19835570e-03 -1.27348461e-03 -1.89048653e-03 -4.85889010e-03" labelled_by=QE-pw.x-PBE-SSSP pbc="T T T"
Li       3.22236869       0.65183921       2.57479949       0.05438423       0.09618805       0.14998067
Li      -0.63498667       2.08407126       9.60973385      -0.52688794       0.47968737      -0.79235666
Li       1.82272711       5.28131129       3.08501355       0.66175876      -0.29991198      -0.00972880
Li       1.75895993       3.25298464       5.19503970       0.42950510      -0.41824264      -0.13471166
Li       0.70026258       2.79001418       2.12496148       0.60079893      -0.21579063       0.34972839
Li       4.81196417       3.39605147       1.53704318      -0.27239758      -0.50293786       0.71283758
Li       3.06975545       8.56494077       5.42777807       0.24150526      -0.42190055      -0.20099907
Li       5.51280053       7.21056982      12.16452769      -0.32152314       0.31805292      -0.07378449
Li       2.99012623      10.36428408       7.65130856      -0.58638533      -0.42467939      -0.99479889
Li       1.90245268       5.81545156       6.86207952       0.12385312      -0.53626064      -0.21800744
Li       2.77291004       5.96222702       9.54401263       0.22606193       0.22603879       0.12042919
Li       5.05769021       8.32208379       7.47257298      -0.22726778      -0.54906294      -0.38829726
Li       5.49850028       1.45407265       6.98286686       0.60903572       0.71205494       0.25856839
Li       6.66244813       4.78854456       8.51434685      -0.34901517      -0.72836087      -0.24617799
Li      10.50306564      -2.21868745       6.18368253       0.78139682      -0.32142466      -0.16378261
Li       7.69921800       2.15958358       5.11651482      -0.26285827       0.62307111       0.55931444
Li       8.97267499       4.70425606       6.76376637      -0.44706008      -0.49567989       0.17985432
Li       7.95829854      -0.00281534       8.00191744      -0.43234668       1.05725459       0.99024778
Li       7.02189146       8.62201911       4.56058694      -0.09268750      -0.24699765       0.17573130
Li       9.99205633       7.24038863       3.01202131      -0.40890876       0.53870525       0.17826641
Li       7.47019875       5.25076174       2.02671427       0.08033052      -0.00599376       0.31171823
Li      11.67504135       9.10507366      -0.95640585       0.12914523      -0.57696146       0.50409486
Li       8.48877416       8.10485463      -0.01051608      -0.42934620      -0.37916110       0.38827694
Li       8.25613465      10.12416291       1.90273678      -0.09515936       0.92476461      -0.21678848
P        4.88225861      -0.27718255       0.09586606       0.71455816      -0.65159493       0.04791739
P        5.32235181       5.02306247       5.28071039      -0.19346060      -1.27562944      -1.73831539
P       -0.30693564       0.38795075       4.93488205       3.71009003      -1.23182015       1.75363968
P       -0.22154487       5.24477524      -0.26877711       0.14318525      -0.92032972      -0.92263626
S        1.11475187       4.18820195       8.78670682      -0.02788953       0.55247479       0.33246318
S        9.30754041       3.88525778       1.06356670      -0.78327964      -0.30162948       0.01638461
S        4.30897493       1.12736459       8.99876696      -0.51364702       0.72862852       0.96467508
S        5.81475481       0.60586029       1.70847460      -0.75434676       0.35882753      -0.37452077
S        2.79772882       3.04952418       3.03899454      -0.65620235      -0.21031547      -0.48298713
S        1.31333980       9.17239021       3.99833567      -1.73151842       0.81865544       0.42282434
S        8.77597830       9.50319236       6.14779350      -0.80934677      -0.83276000      -1.55681171
S        3.93438104       6.25598494       4.23076315       0.65897400       0.08652379       0.29787876
S        6.66907567       6.04803684       6.32050926       0.65225056       1.64374945       0.44384851
S        2.64123380       7.77380589       7.61104226      -0.66165514       0.87897172       0.24706450
S        6.47992318       3.84157300       3.84758644      -0.46253143       0.74287861      -0.14691489
S        4.52780089       3.67041778       6.54643196      -1.39698036       0.20245740       0.26209903
S        9.31218357       1.51731196       3.45945352      -0.85803060       0.25461943      -0.44192044
S        0.67235118       1.41377118       6.50041422       0.39839603      -0.01545156      -1.05683910
S        7.82342621       2.55537022       7.67622084      -0.13554830      -0.31639147      -0.20939707
S        6.22610515       8.78451025       9.30981451       0.59572049      -0.00480848       0.32482032
S        3.37627700       8.69821145       0.77447389       0.33676155       0.95641258       0.09174082
S        8.60953153       6.07804481       8.82884124       0.27185122       0.50563135       0.08531486
S        0.58075137       6.70363144       0.83884078       1.24108512       0.79644266       0.27820288
S        7.79488102       8.13705690       2.42527793      -0.23593677      -2.24052486       0.26479894
Cl      -0.72793266      -0.16312063      -0.14271772       0.55221794       0.23115400      -0.30071185
Cl       0.18386107       5.48330525       5.00521857       0.27885002       0.15786573       0.12457406
Cl       5.03618502      -0.36381144       5.69882285      -0.02180295      -0.21965654      -0.24377220
Cl       5.06604429       5.13140651       0.15292502       0.20230391       0.45316747       0.07696572
