52
Lattice="10.279498 0.0 0.0 0.0 10.279498 0.0 0.0 0.0 10.279498" Properties=species:S:1:pos:R:3:momenta:R:3:forces:R:3:energies:R:1 spacegroup="_JSON {\"number\": 1, \"setting\": 1}" unit_cell=conventional occupancy="_JSON {\"0\": {\"Li\": 1.0}, \"1\": {\"Li\": 1.0}, \"2\": {\"Li\": 1.0}, \"3\": {\"Li\": 1.0}, \"4\": {\"Li\": 1.0}, \"5\": {\"Li\": 1.0}, \"6\": {\"Li\": 1.0}, \"7\": {\"Li\": 1.0}, \"8\": {\"Li\": 1.0}, \"9\": {\"Li\": 1.0}, \"10\": {\"Li\": 1.0}, \"11\": {\"Li\": 1.0}, \"12\": {\"Li\": 1.0}, \"13\": {\"Li\": 1.0}, \"14\": {\"Li\": 1.0}, \"15\": {\"Li\": 1.0}, \"16\": {\"Li\": 1.0}, \"17\": {\"Li\": 1.0}, \"18\": {\"Li\": 1.0}, \"19\": {\"Li\": 1.0}, \"20\": {\"Li\": 1.0}, \"21\": {\"Li\": 1.0}, \"22\": {\"Li\": 1.0}, \"23\": {\"Li\": 1.0}, \"24\": {\"P\": 1.0}, \"25\": {\"P\": 1.0}, \"26\": {\"P\": 1.0}, \"27\": {\"P\": 1.0}, \"28\": {\"S\": 1.0}, \"29\": {\"S\": 1.0}, \"30\": {\"S\": 1.0}, \"31\": {\"S\": 1.0}, \"32\": {\"S\": 1.0}, \"33\": {\"S\": 1.0}, \"34\": {\"S\": 1.0}, \"35\": {\"S\": 1.0}, \"36\": {\"S\": 1.0}, \"37\": {\"S\": 1.0}, \"38\": {\"S\": 1.0}, \"39\": {\"S\": 1.0}, \"40\": {\"S\": 1.0}, \"41\": {\"S\": 1.0}, \"42\": {\"S\": 1.0}, \"43\": {\"S\": 1.0}, \"44\": {\"S\": 1.0}, \"45\": {\"S\": 1.0}, \"46\": {\"S\": 1.0}, \"47\": {\"S\": 1.0}, \"48\": {\"Cl\": 1.0}, \"49\": {\"Cl\": 1.0}, \"50\": {\"Cl\": 1.0}, \"51\": {\"Cl\": 1.0}}" source=mace_1000K frame_in_traj=100 config_type=Li6PS5Cl_md_snapshot energy=-207.52293395996094 stress="-0.003334920620545745 0.0007632716442458332 -0.0015923228347674012 0.0007632716442458332 -0.0034079686738550663 0.0020696453284472227 -0.0015923228347674012 0.0020696453284472227 -0.0014925897121429443" free_energy=-207.52293395996094 pbc="T T T"
Li      -2.22899812       5.71483471       4.56972278      -0.77955052      -1.24659982      -0.30675792      -0.93256921       0.50605798      -0.21421580      -3.64824490
Li       4.55433786       1.66948077       3.81339472      -0.39970748       1.69826021       0.05052497      -0.07353298       0.61935604      -0.91304958      -3.60807116
Li       4.66834156       2.43618633      -2.72567387       0.78291060       0.00174279       0.17967742       0.57429850       0.40159956       0.08148910      -3.30387907
Li       0.91785075       2.00005306       0.37370055       0.47506607       0.26505438       0.66596389       0.07105149       0.62940508      -0.11339694      -3.32872909
Li       3.30808671       5.33098259       1.60755571      -0.58776306      -0.40306618      -0.89212667      -0.80306906      -0.81162894       1.22247422      -3.31595017
Li       4.28671001      -7.39462106      10.96714907       0.21257858      -0.90078372       1.10901179      -0.19675229      -0.30027083       0.15131983      -3.53762965
Li       3.48219180       8.41346696       4.70341901       0.97200508      -1.22272261       0.54745531      -0.13439588      -0.27606788       0.28919092      -3.58217268
Li       3.07299648      10.35182645       6.84543027      -0.16929061      -2.22097447      -0.72852495      -0.03607023      -0.61453557       0.23140267      -3.41738653
Li       1.64352259       9.81738699       9.70437882      -0.31775897       1.34704095      -0.38317236       1.49947476      -0.50047374      -0.91629744      -3.24623996
Li       0.33772720       7.63465448       6.68934984      -0.48382258       1.25564939      -0.06266618       0.17747562      -0.14279711       0.00025931      -3.54771614
Li       1.54359052       3.14874752       4.45489976       0.83720460       0.71885897       0.35660347       0.13992999      -0.11189359       0.01034697      -3.51513146
Li       2.97911130       7.31175609      10.61350665      -0.04929528      -1.62569761      -0.67808347       0.38500142       0.46597126      -0.79175222      -3.28046067
Li       7.76974999       0.53794164      10.41856911      -0.66457716       0.28636134       0.81003100      -0.18797459       0.13023618      -0.07267686      -3.45694594
Li       8.04911882       1.80175012       5.49543683      -0.39950037      -0.89634628      -0.78303787      -0.75071442       0.52084100       0.07379688      -3.35543242
Li      10.59195202       4.32786001      12.52883596      -0.45677998      -1.67236838      -0.83079298       0.37105298      -0.29093057       0.22391093      -3.32657272
Li      17.41646756       3.64250352       9.88634129       1.47036277      -0.73984870       0.66789458      -0.89649397       0.32015932      -0.35798949      -3.41410800
Li       9.42289916       2.49600136       7.58786617      -0.12191434      -0.42135744       1.38963675       0.68314677       0.31107157       0.25905663      -3.41525699
Li       6.81774108       6.45915346      11.56160316      -0.77530829       0.46424636       0.19029155      -0.33568597       0.04490437       0.13983233      -3.48520364
Li       6.15093389      10.52299813       7.11451598       0.53453222      -0.32958595       0.40008965       0.40057379      -0.08431501       0.54114318      -3.22371227
Li       6.50023032       8.87698748       4.27296131       0.41305841       0.41812599       0.18920753       1.10685885      -1.10875404      -0.64768296      -3.42271917
Li      11.07807788      10.43713055       2.43219684      -1.80709446      -0.76604726      -0.94682269      -0.15065472       1.22902739      -1.66920686      -3.48806478
Li       8.94767662       7.92943645       0.52715738       0.80795101      -0.90775941       0.32648413      -0.20328307      -0.40845206       0.29771155      -3.44125439
Li      13.75069521       5.32803772      -2.91557109      -0.39154425       0.42113570       0.52648470      -0.28948313       0.55687398       0.08704398      -3.47469863
Li      10.34035456       6.86521229       2.96553824       1.30935184       0.15525123       0.44687752      -0.16097112       0.46865830       0.33934364      -3.44726856
P        4.53650730      -0.19459231       0.42737551      -2.63005278       2.22642787      -0.28510329       0.94844186       0.61179322      -0.34741288      -5.63746345
P        5.12875382       4.99522428       4.96650529      -0.74092441       1.58424448      -1.93896327      -0.02953483      -0.94633031      -2.09111595      -5.57633340
P       -0.07993698       0.13672920       5.04059256      -3.13734184       0.72578631       0.33603421       1.01275671       0.79143429       0.09716006      -5.66641128
P       -0.39673260       5.13552576      -0.53406388      -3.34133415       1.26872805       0.03226868       3.61801338      -0.02214807      -1.09182072      -6.01510286
S        1.00802151       4.25041869       8.46769112      -2.27602092       1.42854567      -1.46549421      -0.30792367      -0.41140220      -0.21813728      -4.01523501
S        9.09113184       3.75082301       0.55416963       1.66594583      -0.28455838      -0.54258762      -0.57732785      -2.67012835       2.45405102      -4.62768104
S        3.65174765       1.05573232       9.16581804      -0.01210861      -2.13840303      -1.37150258      -0.28856510      -0.13479917       0.05953754      -4.75878011
S        5.75757371       1.01892924       1.57979876      -0.49791694      -0.31283632       2.10238784      -0.08850256       0.77801967       0.30288386      -4.43734525
S        2.36762899       2.84047052       2.06210824       1.24410773       0.63291703      -2.07974327      -0.42872417       0.27387574       0.40333295      -4.18675005
S        1.24156083       9.24570241       3.99979755       0.95537936      -1.23783441      -0.05343811       0.15137516      -1.71108365       1.45351195      -4.46637098
S        8.93356748       9.52262169       6.28376118       1.01846490       0.13744033       0.88565234      -0.79772937      -0.30647826       0.37021664      -4.61514288
S        4.41340661       6.54788821       3.51014429      -1.02375650       1.36119132      -0.39645040      -0.02998220      -0.76944923       0.58304209      -4.35484695
S        5.84252054       5.96245295       6.46631170       1.80628019       0.65704408      -0.40386595       0.30453867       0.96391398       1.33155394      -4.45368591
S        2.59289089       7.99987132       7.53589640      -1.98899220       0.20433296      -0.84252873      -0.13924725       0.01784768       0.17510295      -3.64861870
S        6.66585556       3.86514596       4.07442158       0.14276395       2.58924876       0.85763349      -0.24474439      -0.02563569      -0.21568429      -4.18573374
S        3.97625241       3.26075766       5.44461814       0.90797347       1.80791088      -1.64535772      -0.75768024       0.86219370       0.42007947      -4.69764398
S        9.36864687       1.40983412       3.62038876       1.43140796       0.57490758       0.19358376       0.10111027      -0.07660869       0.14934728      -4.41900772
S        1.22661533       1.31169793       6.26317437       1.17909933       0.39537135       1.01068037      -0.89813620       0.19948635      -0.34436902      -4.46331787
S        7.11732024       2.53574860       7.87500340       1.67193562       0.41212125       1.59044210      -0.33610681      -1.18674862      -0.53278631      -4.28643876
S        6.15769466       9.05145060       9.93567443       2.44074752       1.05799140      -1.11801833      -0.28232121      -0.63155079      -0.60693693      -4.34980264
S        2.98546119       9.43891563       1.56910625      -1.39904293      -3.62466706       0.12986495       0.13223653      -0.59578931      -0.40214133      -4.54727831
S        8.45401920       6.07623276       8.92186705       2.31834638      -1.00761467       2.39911545      -2.01423001       2.15026903      -1.12502193      -4.31715244
S        1.00023815       6.17197617       0.63634154       0.26442966      -4.60724857      -0.56500335      -0.08673418       0.78580642       1.20203030      -4.62484837
S        8.10682453       7.65595045       2.97545275       0.85255370       0.24035596       0.19527994       0.02291168      -0.19991098      -0.69628048      -3.95841646
Cl      -0.25341514      -0.43205087       0.23723084       0.74017063       1.93113382      -2.24257242      -0.93261099       0.84429425       0.34118575      -3.76875722
Cl      -0.19581295       5.30792915       4.81076167       0.02028312       0.02587418       0.44751923       1.51999891      -0.36810163      -0.21327746      -3.60661674
Cl       5.06713619      -0.11015894       4.96303660      -3.94706342       0.74172166      -1.41182490      -0.73247492       0.23883483       1.18600762      -3.85192478
Cl       4.90264504       5.11463462       0.29197072       1.92355133      -0.46869985       3.93774416       0.90397978      -0.01564689      -0.89611232      -3.70329547
52
Lattice="10.279498 0.0 0.0 0.0 10.279498 0.0 0.0 0.0 10.279498" Properties=species:S:1:pos:R:3:momenta:R:3:forces:R:3:energies:R:1 spacegroup="_JSON {\"number\": 1, \"setting\": 1}" unit_cell=conventional occupancy="_JSON {\"0\": {\"Li\": 1.0}, \"1\": {\"Li\": 1.0}, \"2\": {\"Li\": 1.0}, \"3\": {\"Li\": 1.0}, \"4\": {\"Li\": 1.0}, \"5\": {\"Li\": 1.0}, \"6\": {\"Li\": 1.0}, \"7\": {\"Li\": 1.0}, \"8\": {\"Li\": 1.0}, \"9\": {\"Li\": 1.0}, \"10\": {\"Li\": 1.0}, \"11\": {\"Li\": 1.0}, \"12\": {\"Li\": 1.0}, \"13\": {\"Li\": 1.0}, \"14\": {\"Li\": 1.0}, \"15\": {\"Li\": 1.0}, \"16\": {\"Li\": 1.0}, \"17\": {\"Li\": 1.0}, \"18\": {\"Li\": 1.0}, \"19\": {\"Li\": 1.0}, \"20\": {\"Li\": 1.0}, \"21\": {\"Li\": 1.0}, \"22\": {\"Li\": 1.0}, \"23\": {\"Li\": 1.0}, \"24\": {\"P\": 1.0}, \"25\": {\"P\": 1.0}, \"26\": {\"P\": 1.0}, \"27\": {\"P\": 1.0}, \"28\": {\"S\": 1.0}, \"29\": {\"S\": 1.0}, \"30\": {\"S\": 1.0}, \"31\": {\"S\": 1.0}, \"32\": {\"S\": 1.0}, \"33\": {\"S\": 1.0}, \"34\": {\"S\": 1.0}, \"35\": {\"S\": 1.0}, \"36\": {\"S\": 1.0}, \"37\": {\"S\": 1.0}, \"38\": {\"S\": 1.0}, \"39\": {\"S\": 1.0}, \"40\": {\"S\": 1.0}, \"41\": {\"S\": 1.0}, \"42\": {\"S\": 1.0}, \"43\": {\"S\": 1.0}, \"44\": {\"S\": 1.0}, \"45\": {\"S\": 1.0}, \"46\": {\"S\": 1.0}, \"47\": {\"S\": 1.0}, \"48\": {\"Cl\": 1.0}, \"49\": {\"Cl\": 1.0}, \"50\": {\"Cl\": 1.0}, \"51\": {\"Cl\": 1.0}}" source=mace_1000K frame_in_traj=200 config_type=Li6PS5Cl_md_snapshot energy=-209.36920166015625 stress="-0.0036520236171782017 0.00048589534708298743 0.003553459420800209 0.00048589534708298743 0.0034927427768707275 0.00029522585100494325 0.003553459420800209 0.00029522585100494325 -0.004388148430734873" free_energy=-209.36920166015625 pbc="T T T"
Li      -1.58604835       5.04182671       7.49760954      -0.07017854       1.50851204       0.95899885      -0.41069859      -0.98566753      -1.10429537      -3.51304096
Li       1.71898798       0.38362322       1.86762369       0.57193800       1.11341026       0.13554351      -0.14208943      -0.01300500       0.18114339      -3.52570391
Li       5.47850232       1.93369927      -3.45790540      -0.30687456      -0.09330579      -0.41099566      -0.38111785       0.17799623      -0.39622924      -3.55154760
Li       3.02189213       2.65279171      -0.16607569      -1.39798702      -0.95388836       2.09671044      -0.19607618       0.66498911       0.67635167      -3.50992359
Li       2.96736108       5.49926936       1.63560625       0.78646444       0.89790924       0.32122846       0.80298305      -0.74761844       0.23899408      -3.59657396
Li       4.21100280      -8.96587465      13.40468940      -0.39366741      -0.45687498      -0.93351960       0.63767010       0.04164396       0.17415591      -3.61838250
Li       2.27195188       6.27914636       9.00124322      -0.71738435       0.21544469       0.21167561      -0.06987418      -0.68524772       0.39425260      -3.18859941
Li      -0.78085553      12.34697983       8.24144502       1.67260594       0.29975197       0.78064208       0.14107913       0.17028074       0.71733809      -3.40437806
Li       4.84569594       6.24141514       7.44317969       0.39174333      -0.53646110       0.94817864      -1.30186093       0.02811646       1.04102051      -3.11794364
Li       2.97108367       9.37998788       9.08009432       0.78563394      -0.46002067       0.56093360      -0.62419909      -0.25673372      -0.09851670      -3.36579448
Li       0.04547982       2.95468771       2.26980233       0.80808002       0.89473493       1.61465662       0.68440652      -0.22313014       0.40809667      -3.57605417
Li       2.81561151       9.49011883       6.04707095       0.18737845       0.42842395      -0.18453874       0.17756224       0.54762048      -0.54339623      -3.49313645
Li       6.98428088      -0.24351517       7.80933461       0.49687450      -0.37321246       1.49709464       0.01265855       0.94504607      -0.83909392      -3.23545876
Li       7.79992153       3.04866969       5.16435996       0.65566233      -2.26859576      -1.51941151       0.18730457       0.04756304      -0.10742274      -3.58619244
Li      11.45836177       2.56601110      15.06234096      -0.08460515      -0.66858064       0.90251682       0.12862977       0.66323537      -0.38155830      -3.59793945
Li      16.92497763       2.99747915       9.63382853       0.35031785      -0.41239746       0.39171577      -0.13846309       0.18201195       0.45701861      -3.54487953
Li      12.25584422       6.70997331       5.51987455      -0.89091064      -0.44818889       0.96132927      -0.26698795      -0.67319757      -0.84835857      -3.44131723
Li       5.72316390       8.02979403      11.74524568       0.26200652      -0.14210422       1.13446041       1.21167099      -1.09644270       0.31989124      -3.42979939
Li       6.73988524       7.98153062       4.63636976       1.09658308       0.32070929       0.51977059      -0.43346900       0.52034128       1.12644267      -3.53341126
Li       7.95035826      10.02221752       2.00716395       0.58007738      -0.69366648      -0.05831782       0.06564695       0.10915874       0.11203796      -3.55043502
Li       9.59113827       7.82869699       0.69558608       0.05422667      -0.94088156       0.69719390      -0.44337958       0.32181489      -0.05694900      -3.51980807
Li       7.34838775       5.24624331       2.59599555      -0.16316014      -0.73356883       0.37837655       0.33963001       0.52974027      -0.31434831      -3.57028396
Li      10.27320009       8.78614464      -2.35325071       1.08118795      -1.94020413      -0.04353310       0.09528790      -0.15292908       0.11752599      -3.52511401
Li       9.98084901       7.13065417       3.20129932       0.49629688       0.61465105      -0.10180326      -0.69706774      -0.10251065       0.87400460      -3.45900917
P        5.03470440      -0.05781403       0.08151019       1.52461509       2.41390632      -1.26975279       2.06197548       1.74944925      -0.40741020      -5.51079452
P        4.95936517       5.12609673       4.55533258      -1.41618401      -1.16948622      -1.88436025       0.06976084      -0.44389445       0.72968996      -5.73713517
P       -0.16905907       0.01474977       5.21586519       1.32193593       2.09264553      -2.44699948      -1.08061516       1.16399837      -0.00759692      -5.32601798
P       -0.01872024       5.15322018       0.18729330      -0.60334823      -0.73464127       0.40406034      -1.65542781      -0.88622993      -1.96047473      -5.68298495
S        0.93586788       3.94877591       9.14482088       1.91434775      -0.60887714       1.09073886       0.79972696      -0.39330900      -0.17601222      -4.50645070
S        8.82744388       3.96461537       1.02491159      -2.38057087      -0.61194035       0.89431657      -0.84314311       0.18558700      -0.33170471      -4.51753974
S        4.11923002       1.09377079       8.84477569       1.17905671      -1.09515980       0.73920970       0.18621013      -0.35093176      -0.18142751      -4.75590168
S        6.09999447       1.30089221       1.27690899      -0.71851567       0.56931609      -1.99584455      -0.62230110      -0.16887954      -0.12854514      -4.41939694
S        2.40181385       2.61236836       2.62511781       3.01989233      -1.75654106       2.99690209      -0.40630770      -0.27842039      -0.61580431      -3.98956579
S        0.91734440       9.05186738       4.00364889      -3.95199839       0.86605619      -0.77406162       0.52946323       0.09851480       0.42702198      -4.82202144
S        8.50215827       9.39241538       6.22271688       2.05591394       2.85407813      -2.55188340       0.97619426      -0.35269091      -0.49722666      -4.54257751
S        6.00389393       3.69843351       3.50427434      -0.02041424      -0.16311720       1.00153278      -0.35082912       0.05885811       0.32380828      -4.53985605
S        3.76961311       6.51020660       3.59340488       1.22868045       1.46028998      -0.86737940       0.39054218      -0.05062657       0.41655636      -4.54107772
S        2.26945340       7.79794604       7.39962627      -3.59335698      -3.30433896       1.58819232       0.45238191       0.49261278       0.69760251      -4.66783507
S        6.28644209       6.03460795       5.95062658       0.65046246       0.34568091       0.52722432       1.33902133       0.33621353      -1.17157459      -4.47351654
S        3.96862373       4.07407867       6.03973258      -5.40643248       0.98110647      -0.50595836      -0.57716119      -0.05208270       0.09231499      -4.22461587
S        9.24306181       1.38123532       3.69835400       0.79506586       1.21099259      -3.97176567      -0.00616104      -0.75188220       0.79059428      -4.46772349
S        0.63106238       1.41675583       6.69780880      -0.51170480      -1.88232873      -1.32382177       0.70332801      -1.58377409      -1.04941607      -4.52946568
S        7.52150428       2.75176277       7.50054250      -0.50686439       2.43308339      -2.94214830      -0.38759375       0.00328275      -0.01400781      -4.35404575
S        6.72883542       9.19734127       9.75023253       2.37300852       1.90852701       3.42592155      -0.32317793      -0.74041426       0.48690331      -4.40746629
S        3.90204186       8.97805111       1.09691142      -0.26938427      -0.80103998      -2.36883188      -2.45745730      -0.01195681       0.48164064      -4.71474656
S        9.32709157       6.43431590       8.99026063      -1.33214423      -0.91698348      -0.14891604       0.25586048       0.97119629       1.21680522      -4.36820334
S        0.87438902       6.18147345       1.58193364      -2.26022761       0.44888636      -0.44302380       0.85937184       1.22267437       0.67389596      -4.86002861
S        7.63910964       7.73305006       2.75434819       1.85388203      -1.61288594       1.50349792       1.05561328      -0.32508302      -1.45249581      -4.31785029
Cl       0.15311756      -0.20778822       0.10984779       1.67730708      -0.68254622       0.84412150       0.08250383      -0.22103371      -0.17777541      -3.55211335
Cl      -0.21842242       4.94524827       4.91356518      -4.76174270       3.17387557      -1.34044945       0.12493668       0.19853429       0.21290973      -3.33967298
Cl       5.09347457       0.00356470       5.12687904       0.98223698      -0.36698310       0.67196888      -0.37110740       0.01231474       0.25049293      -3.45700926
Cl       4.78165104       4.88553512       0.33541697       0.90417392      -0.22317104      -1.71139534      -0.18485422       0.10489675      -0.77687013      -3.28871906
52
Lattice="10.279498 0.0 0.0 0.0 10.279498 0.0 0.0 0.0 10.279498" Properties=species:S:1:pos:R:3:momenta:R:3:forces:R:3:energies:R:1 spacegroup="_JSON {\"number\": 1, \"setting\": 1}" unit_cell=conventional occupancy="_JSON {\"0\": {\"Li\": 1.0}, \"1\": {\"Li\": 1.0}, \"2\": {\"Li\": 1.0}, \"3\": {\"Li\": 1.0}, \"4\": {\"Li\": 1.0}, \"5\": {\"Li\": 1.0}, \"6\": {\"Li\": 1.0}, \"7\": {\"Li\": 1.0}, \"8\": {\"Li\": 1.0}, \"9\": {\"Li\": 1.0}, \"10\": {\"Li\": 1.0}, \"11\": {\"Li\": 1.0}, \"12\": {\"Li\": 1.0}, \"13\": {\"Li\": 1.0}, \"14\": {\"Li\": 1.0}, \"15\": {\"Li\": 1.0}, \"16\": {\"Li\": 1.0}, \"17\": {\"Li\": 1.0}, \"18\": {\"Li\": 1.0}, \"19\": {\"Li\": 1.0}, \"20\": {\"Li\": 1.0}, \"21\": {\"Li\": 1.0}, \"22\": {\"Li\": 1.0}, \"23\": {\"Li\": 1.0}, \"24\": {\"P\": 1.0}, \"25\": {\"P\": 1.0}, \"26\": {\"P\": 1.0}, \"27\": {\"P\": 1.0}, \"28\": {\"S\": 1.0}, \"29\": {\"S\": 1.0}, \"30\": {\"S\": 1.0}, \"31\": {\"S\": 1.0}, \"32\": {\"S\": 1.0}, \"33\": {\"S\": 1.0}, \"34\": {\"S\": 1.0}, \"35\": {\"S\": 1.0}, \"36\": {\"S\": 1.0}, \"37\": {\"S\": 1.0}, \"38\": {\"S\": 1.0}, \"39\": {\"S\": 1.0}, \"40\": {\"S\": 1.0}, \"41\": {\"S\": 1.0}, \"42\": {\"S\": 1.0}, \"43\": {\"S\": 1.0}, \"44\": {\"S\": 1.0}, \"45\": {\"S\": 1.0}, \"46\": {\"S\": 1.0}, \"47\": {\"S\": 1.0}, \"48\": {\"Cl\": 1.0}, \"49\": {\"Cl\": 1.0}, \"50\": {\"Cl\": 1.0}, \"51\": {\"Cl\": 1.0}}" source=mace_1000K frame_in_traj=300 config_type=Li6PS5Cl_md_snapshot energy=-208.20899963378906 stress="0.001161196269094944 0.00011302580969640985 -0.0023531855549663305 0.00011302580969640985 -0.0019032838754355907 0.0005785605753771961 -0.0023531855549663305 0.0005785605753771961 -0.0010671312920749187" free_energy=-208.20899963378906 pbc="T T T"
Li      -2.37709304       0.71035439       7.58968226       0.66580402      -0.49545040      -0.75777892      -0.38060093      -0.51519966       0.37990749      -3.41543068
Li      -0.83815977      -2.15299403      -1.11549578       0.80115153      -0.18468976      -0.87236565       0.00099375      -0.06704837      -0.05040765      -3.68253030
Li      10.42408775       3.38120974      -7.47354516       0.10159228      -1.33105822      -1.03875224      -0.26803839      -0.11975491       0.22574002      -3.29174440
Li       0.29162499       0.00273709       2.55408484       0.02877445       0.06531988      -0.01128902       0.63101995       0.01476321      -0.17912179      -3.58330218
Li       2.67305519       4.77550996       1.51295080       0.60517813       0.42792670       0.65632236       0.52207953       0.19403797       0.23696470      -3.50300564
Li       2.24679541      -8.56278465      10.54462979      -0.08045674       1.53591813      -1.21229535       0.10645790      -0.27509746      -0.49212959      -3.47914426
Li       2.69186524       7.44408329       9.82963854       0.79249149       0.24887477       0.01342617       0.20287281       0.43969417       1.14962685      -3.42326923
Li      -4.76475926      13.10027321       7.77073591       0.16144847      -0.67056346      -0.34931619       1.67977595       0.92890376      -0.63764840      -3.32803442
Li       5.16831564       7.38268521       8.19336875      -0.52058636      -1.11501155      -0.55149696      -0.22647715      -0.15187193      -0.06207211      -3.51821320
Li       4.43079769      11.74059706       2.34034678       0.54594792      -0.51638070       0.09995209      -0.16530520       0.15631253       0.56775004      -3.66911136
Li       1.30040925       3.93392214       6.34419785       0.07167352      -0.16255320       0.44473786       0.98117828       0.13753100       0.67535961      -3.17488647
Li       0.90678360       7.06637311       5.99530570       0.11734540       0.22104015       0.74025063       0.58061051       0.47092485       0.12624888      -3.66036139
Li       6.49834830       4.96557487      11.43243306       0.89104014       0.73369066      -0.03570317       0.06515810       0.00054925       0.06818128      -3.48391674
Li       7.47676994       2.94584482       4.45334098       0.70794979      -1.18116955       0.20589040      -0.12954387      -0.29279342       0.32768747      -3.44377948
Li      12.58730460       2.19974413      15.16351324      -0.77499906      -1.47819945      -0.21084811       0.69698018      -0.22708488      -0.72554719      -3.35067955
Li      20.09061163       2.74377942       7.51627881       0.89611563       0.20649394      -0.55310994       1.65005338      -0.28774762       0.84233069      -3.10251695
Li      13.91021758       4.93508156       8.62273671      -0.79100659      -0.12365514      -1.22485676      -0.53840923       0.16624925      -0.49815434      -3.46058285
Li       5.64044727       8.20158775      11.49099867       0.91487319       0.13118849      -0.41151865      -0.38573891      -0.55192745      -0.44161093      -3.40293787
Li       4.76354962       8.01412615       4.25282214      -0.28585347       0.15698922       1.29710002       0.61692178       0.48284265      -0.18006547      -3.56605062
Li       7.90790216      10.16083080       1.96089941       0.40234905       0.19662608       1.12338122       0.03536529      -0.36455095      -0.11250363      -3.60176156
Li       8.71216265       6.24456154       2.94758204       1.71129142      -0.48729366       1.50207908       0.05373873       0.13115862      -0.07319777      -3.35862838
Li       7.30538627       9.32383566       4.86927168       0.63089780       0.26551608       0.40898531      -0.26980406       0.07932949      -0.33935785      -3.55409676
Li      13.86515570       9.60704427      -3.53304706       0.17389905      -0.05922056       0.74620858      -0.24304432       0.18109541       0.08830734      -3.47463992
Li       8.02042261       4.93874864       6.50226439      -0.82153597      -0.40803963       0.17341888      -0.11313060       0.71993756       0.32208633      -3.56166054
P        5.45197844       0.06083644      -0.08050421      -2.13859988       0.63175486      -2.17082449      -0.65187776       1.34535992      -0.71097445      -5.59529233
P        4.72808033       5.04413770       5.05375545      -0.17792162       1.19949125       0.73950297      -0.24475092       1.11576438       1.12294364      -6.13396335
P       -0.11004111      -0.14137729       5.48429008      -0.88346024      -1.87917637      -1.07275603       1.18301332      -0.46675229      -0.16311342      -4.94381881
P       -0.07989868       4.87093124      -0.34290197       0.41328219       1.72070734      -0.83628697       0.41816354       0.35165885       0.00644696      -5.59556341
S        1.40043495       3.65594842       8.85848965      -1.77698895      -2.20543785       1.04781338      -0.99130470       0.13109560       0.48192403      -4.74180636
S        8.95585973       4.20366517       1.19176288       1.48085916      -2.69618432      -2.99939019      -0.34301394      -0.53550464       0.69085741      -4.50934272
S        4.63127444       1.15387548       8.57488832       1.37250508       0.59356879      -0.00450961      -1.26106834      -1.59477746       0.90429044      -4.27385980
S        6.42690814       1.51401762       1.01006613      -0.84355167      -1.62161168       1.32535659       0.15830007      -0.09420587      -0.02792973      -4.46253458
S        2.19790357       2.67883588       2.30952738      -0.95646539      -0.30758947      -0.71321709       0.29195789      -0.53560609       0.75781846      -4.32227722
S        1.32279112       9.02576297       4.23281942      -0.06877196       1.41981562      -0.09117699      -1.12162721       0.46737501       1.23162150      -4.30836007
S        8.87013376       8.98103974       6.72830846      -2.87639820       1.17176248       0.07023936       1.00007761       0.62382627      -0.91897178      -4.83173604
S        5.47732368       4.16636429       3.48356441      -1.94460751      -0.97489034      -1.53475663       1.43710649      -1.33797097      -1.62452650      -4.36360341
S        3.33792855       6.23690540       4.25223968       2.51839664      -1.41393159      -2.22297347      -1.34777474       0.13397904      -0.48996311      -4.15538311
S        2.71879180       7.05189578       7.79417829       1.67588543       1.98566639       0.79761720       0.06497800       0.55975693      -1.75123167      -3.73576051
S        6.03137654       6.40497586       5.94206504       0.74966557      -0.10237701      -0.59416908       0.32129806      -0.12715963       0.46777907      -4.43741721
S        3.94701957       3.68031579       6.38372078       2.48436372       1.62671440       0.18399065      -0.68305516      -0.07870552      -0.10775328      -4.69976395
S        9.06100820       1.01066178       3.91384039       0.35913879      -0.79831109       2.72532256      -0.01839378       0.04435474       0.53547376      -4.76890759
S        1.39598557       1.04353515       6.68768773      -0.76045392      -0.35654865      -1.06324704      -1.25734174      -0.46661326      -0.65759528      -4.63734373
S        7.91159591       2.80186989       6.83495525      -3.02387093       0.18892591      -1.03695319      -2.12659383      -0.28138009      -0.48540631      -4.22565395
S        6.70471696       9.18514720       9.04386063      -0.00493007       3.94741037       2.05687826      -0.14184675      -0.47063017       0.41864640      -4.57948556
S        3.79551214       9.75645707       1.12495089      -2.13501010      -2.32618654       1.49542946       0.28932616      -0.31267801      -0.70608497      -4.58902184
S        8.66187375       5.83541892       9.00341195      -1.11522034       0.72917687       2.04915140       0.03883969       0.18499799      -0.71586430      -4.35370374
S        1.09789144       6.20460342       0.68570135       0.57620911       3.51835957       1.05688410      -0.53869092       0.29966879       0.29988626      -4.39123306
S        7.03760335       7.98257406       2.86944582      -0.28549068       0.13238236      -1.03173232       0.52357954      -0.15177803       0.39817309      -4.12552547
Cl      -0.33998789      -0.69215443       0.55382591      -1.35995479       0.68023239       0.89410638      -0.07949363       0.32717964      -0.01226224      -3.34345305
Cl      -0.19822490       5.18609192       5.46825717      -1.62617967      -2.09219496      -0.35554690      -0.41764519       0.17859587      -0.89769852      -3.75827968
Cl       5.05117215       0.37920151       4.72707955       2.48063879       0.54892975       0.54553180      -0.11189374      -0.52964568       0.14971954      -3.44912380
Cl       4.64572312       6.05829213       0.07625317       0.92154524       0.70324209       0.55729388       0.50661886      -0.03045860       0.58542120      -3.78634953
52
Lattice="10.279498 0.0 0.0 0.0 10.279498 0.0 0.0 0.0 10.279498" Properties=species:S:1:pos:R:3:momenta:R:3:forces:R:3:energies:R:1 spacegroup="_JSON {\"number\": 1, \"setting\": 1}" unit_cell=conventional occupancy="_JSON {\"0\": {\"Li\": 1.0}, \"1\": {\"Li\": 1.0}, \"2\": {\"Li\": 1.0}, \"3\": {\"Li\": 1.0}, \"4\": {\"Li\": 1.0}, \"5\": {\"Li\": 1.0}, \"6\": {\"Li\": 1.0}, \"7\": {\"Li\": 1.0}, \"8\": {\"Li\": 1.0}, \"9\": {\"Li\": 1.0}, \"10\": {\"Li\": 1.0}, \"11\": {\"Li\": 1.0}, \"12\": {\"Li\": 1.0}, \"13\": {\"Li\": 1.0}, \"14\": {\"Li\": 1.0}, \"15\": {\"Li\": 1.0}, \"16\": {\"Li\": 1.0}, \"17\": {\"Li\": 1.0}, \"18\": {\"Li\": 1.0}, \"19\": {\"Li\": 1.0}, \"20\": {\"Li\": 1.0}, \"21\": {\"Li\": 1.0}, \"22\": {\"Li\": 1.0}, \"23\": {\"Li\": 1.0}, \"24\": {\"P\": 1.0}, \"25\": {\"P\": 1.0}, \"26\": {\"P\": 1.0}, \"27\": {\"P\": 1.0}, \"28\": {\"S\": 1.0}, \"29\": {\"S\": 1.0}, \"30\": {\"S\": 1.0}, \"31\": {\"S\": 1.0}, \"32\": {\"S\": 1.0}, \"33\": {\"S\": 1.0}, \"34\": {\"S\": 1.0}, \"35\": {\"S\": 1.0}, \"36\": {\"S\": 1.0}, \"37\": {\"S\": 1.0}, \"38\": {\"S\": 1.0}, \"39\": {\"S\": 1.0}, \"40\": {\"S\": 1.0}, \"41\": {\"S\": 1.0}, \"42\": {\"S\": 1.0}, \"43\": {\"S\": 1.0}, \"44\": {\"S\": 1.0}, \"45\": {\"S\": 1.0}, \"46\": {\"S\": 1.0}, \"47\": {\"S\": 1.0}, \"48\": {\"Cl\": 1.0}, \"49\": {\"Cl\": 1.0}, \"50\": {\"Cl\": 1.0}, \"51\": {\"Cl\": 1.0}}" source=mace_1000K frame_in_traj=400 config_type=Li6PS5Cl_md_snapshot energy=-208.73809814453125 stress="0.0020165457390248775 -0.0031061344780027866 0.0005408897995948792 -0.0031061344780027866 0.00036008746246807277 0.0014030348975211382 0.0005408897995948792 0.0014030348975211382 -0.0032047093845903873" free_energy=-208.73809814453125 pbc="T T T"
Li      -5.17276544       2.52729456       7.65737929       0.11331218      -0.23891987      -1.47189128      -0.17835945       0.18954894      -0.11975768      -3.44076443
Li      -2.73693073      -9.55612924      -5.12726438       1.53164626      -0.38618456      -0.06901900      -0.63427806       0.74224633       0.03620546      -3.64522292
Li       7.00739647       7.93459157      -5.71352453       0.53463175       0.27608850       1.21861919       0.50767368       1.34273040      -1.17827964      -3.34634289
Li       0.73683567       2.16702714       1.88766356       0.24318412       0.16199003      -0.15403323       0.01522015      -0.06374067       0.16274242      -3.56528759
Li       2.53591587       4.61355132       3.67104309       0.82667301      -0.38987358       1.06275825      -0.24706307       0.56477094       0.03629267      -3.44469951
Li       5.35029901      -5.80814059      12.77123529      -0.61260994       0.94949678       1.09261835      -0.95706928       0.17444998      -0.57446110      -3.27964431
Li      -4.28751341      10.18665825       7.39523327      -1.39906502       0.03218746      -0.75900715       0.64104354       0.22629657       0.18704128      -3.51339671
Li      -9.74847071       7.67341480       5.64321463       0.86617007       0.38233981       0.96783863       0.12638041      -0.09469548       0.87111866      -3.59287731
Li       0.81011906       7.35389479       9.48023177       0.87066859       0.83128082      -0.53223183      -0.18360311       0.26185244       0.50982773      -3.49613474
Li       3.68357865      12.96131220       0.85232287       0.58126420      -0.22356053      -1.13489274       0.15046690      -0.09872618      -1.33041334      -3.31308365
Li      -2.13879391       4.40117145       6.88172636       0.58792092       0.48765245      -0.74425751      -0.06377876      -0.03281233      -0.11324392      -3.54403603
Li       2.71803514      12.66646580       5.13600493      -0.57600320      -0.81444318       0.50018003       1.20266366       0.86987305      -0.99350822      -3.37371786
Li       5.72593838       7.69425603      12.26764881      -0.97545613       0.40245924       0.32167187      -1.29791951      -0.25992587      -0.11546819      -3.33610533
Li       7.63782777       2.10473314      -0.55150141      -0.31729929      -0.09669580      -0.80778647      -0.50930423      -0.19101380      -0.08182612      -3.34500398
Li      13.75031272       9.36906287      16.75040081      -0.15687775       1.67720755       0.17016010      -0.53137821      -0.14926006       0.01367146      -3.52082103
Li      17.86610847       5.61848760      10.67151923       0.16046711      -0.91117440       0.94722322       0.67095727       0.11706707      -0.11639449      -3.53493011
Li      14.77523801      17.26839873       8.85265554      -0.55069109      -0.24998879      -0.00699592      -0.11071824      -0.00442574      -0.03431715      -3.64075039
Li      11.94547104       5.17775735      17.71897597      -0.11447264      -0.36458453       1.48591654      -0.11791633       0.46283048       0.08894597      -3.47710396
Li       7.83887175       8.91084312       0.86463692      -0.44154490       0.68146229      -0.52984386       0.79033804       0.66611302      -0.20055121      -3.39175557
Li      10.09683417       6.95364288       2.92542870       0.34317991      -2.21761072       0.19085428      -0.05097397       0.19553809      -0.19465902      -3.58094434
Li       8.11087808       4.72289410       3.10119526       1.44899744      -0.47432342       1.30934547       0.68870598       0.38707483      -0.08201227      -3.39171497
Li       3.45103019      10.05273919       2.86989328       0.39839578      -0.30419871      -0.62291090      -0.05824293       0.54509276       0.33302057      -3.51766847
Li      12.33778051       9.61210357      -1.32335075       0.35187139       0.21692803      -0.61159679      -0.87564659       0.25056893       0.59909832      -3.51760828
Li       9.83143520       1.38964259       8.41444869       0.19202139       0.07882888      -0.45201323       0.07582834      -0.01240020      -0.53579301      -3.56468019
P        4.80636990      -0.50989994      -0.07324773      -2.85476391      -1.29039442      -0.71488877       0.55990696       0.92923015       0.69072670      -5.67701149
P        5.21757492       5.27070419       5.30257252       0.19127717      -0.13478588       3.85235901      -1.98380649       0.03532679      -1.02183867      -5.22458339
P       -0.00378457       0.08183229       4.99108644      -0.05731300      -0.17709626       1.11654553      -0.57107550       1.18365324       0.57664335      -5.83867919
P        0.52038287       4.44490293      -0.25888986      -0.41814607       1.12564204      -0.46126716      -1.15951574      -1.04444051       0.08791026      -5.37892830
S        1.46122306       2.61618131       9.34746103      -0.73817376       1.80400550      -0.36377840       0.06711715       1.92550039       0.55030262      -4.41065714
S        9.09600493       3.45068984       0.69498796      -0.47156433      -0.21116354      -0.13804963       0.05121379       0.35488948       0.44980213      -4.52543490
S        3.92317768       0.40833211       8.60039084      -0.75633333      -0.81658206       2.70245212       0.70383096       1.03371263      -0.38235423      -4.72205164
S        5.64612039       1.02738092       1.17700789      -2.28619026      -0.07248843      -3.57007056       0.03181079      -0.66361362      -0.81987041      -4.31573296
S        3.05662891       2.53827768       2.85040659      -1.17242484       1.19173538       0.11146683      -0.53646529      -0.26763412       0.73400462      -4.21998334
S        1.12042198       9.07767613       3.96719380       1.08695646      -2.03613767       0.02497805       0.64515018      -0.68272519      -1.18226314      -4.65611480
S        8.75801429       9.42975766       6.11455157       0.16608714      -2.55373834       0.41910365       0.95734143      -1.00765514      -0.10656604      -4.39069226
S        6.40146894       3.89347530       4.34761868      -0.78196784       0.02168788      -0.20406305      -0.04031698      -0.46796513       0.41197097      -4.72051550
S        3.98525959       6.62309332       3.86351606       0.28429746       1.39671812       1.12698480       1.04971647      -1.26994371       0.44536784      -4.16169459
S        2.33454177       7.72097869       7.89536070       1.25487750      -0.59698517      -1.44107474       0.21028595      -1.04337323      -1.24229455      -4.21271437
S        6.51791757       6.57090895       5.99641907       0.31008118       1.64431835       3.79228786       0.29744062      -0.70741564       2.50865459      -4.56890195
S        3.54286115       4.13620778       6.48609592       1.71925902       0.00255613      -1.59292716       1.27177048       0.39091438      -0.38409683      -4.55261663
S        9.44660906       1.71977379       4.09976639      -1.02351782      -2.18299534      -1.99427514      -0.14590915      -0.03438564      -1.04510915      -4.17389750
S        1.35849338       1.20410881       6.04757256      -0.91843275       1.86761275      -1.19676177      -0.92484242      -1.50355351       2.02660656      -4.23238403
S        7.38247831       2.09359163       7.26187414       0.14600231       0.91452958      -2.02694266       0.10175395       0.09063966       1.02816474      -4.21455157
S        6.38530954       8.73467269       9.39211307       2.78354363      -0.14120774       1.23847282      -0.25462791      -0.24788350      -0.31526601      -4.63285276
S        3.42283989       8.70805098       0.94383045       0.90581385       3.47366920      -2.44935450       0.28711408      -0.09551680      -0.15453757      -4.62276997
S        9.59941662       5.71591478       8.75520990      -0.18363511      -2.51619197      -0.40478412       0.14073065      -0.64770216      -0.28495386      -4.61060981
S        1.21623080       5.70864905       1.16804383       1.20035297       2.11757841       2.30841747       0.44708532      -0.05132879      -0.16389902      -4.52608134
S        7.81630842       7.13017803       2.24025604      -1.35743513      -0.55035802       2.43611536       0.64725274      -0.54326224       0.70619327      -4.57840094
Cl      -0.08115453      -0.18846752      -0.20475061       1.44286893      -1.16247040      -0.61892069      -0.28641072      -0.65219635       0.14784341      -3.39323437
Cl      -0.06951529       5.67977158       4.79222794      -0.67622574       0.10586021      -4.34638824      -0.03288180      -0.55014908       0.01741456      -3.57740301
Cl       5.36011580      -0.32301093       5.26824376       1.10066120       0.30911112       2.66172292      -0.06868337      -0.13601175      -0.62830913      -3.64331257
Cl       5.42183588       5.39565849       0.13661887      -2.80233882      -1.03879420      -1.63806665      -0.51801240      -0.41616300       0.18247426      -3.58191228
52
Lattice="10.279498 0.0 0.0 0.0 10.279498 0.0 0.0 0.0 10.279498" Properties=species:S:1:pos:R:3:momenta:R:3:forces:R:3:energies:R:1 spacegroup="_JSON {\"number\": 1, \"setting\": 1}" unit_cell=conventional occupancy="_JSON {\"0\": {\"Li\": 1.0}, \"1\": {\"Li\": 1.0}, \"2\": {\"Li\": 1.0}, \"3\": {\"Li\": 1.0}, \"4\": {\"Li\": 1.0}, \"5\": {\"Li\": 1.0}, \"6\": {\"Li\": 1.0}, \"7\": {\"Li\": 1.0}, \"8\": {\"Li\": 1.0}, \"9\": {\"Li\": 1.0}, \"10\": {\"Li\": 1.0}, \"11\": {\"Li\": 1.0}, \"12\": {\"Li\": 1.0}, \"13\": {\"Li\": 1.0}, \"14\": {\"Li\": 1.0}, \"15\": {\"Li\": 1.0}, \"16\": {\"Li\": 1.0}, \"17\": {\"Li\": 1.0}, \"18\": {\"Li\": 1.0}, \"19\": {\"Li\": 1.0}, \"20\": {\"Li\": 1.0}, \"21\": {\"Li\": 1.0}, \"22\": {\"Li\": 1.0}, \"23\": {\"Li\": 1.0}, \"24\": {\"P\": 1.0}, \"25\": {\"P\": 1.0}, \"26\": {\"P\": 1.0}, \"27\": {\"P\": 1.0}, \"28\": {\"S\": 1.0}, \"29\": {\"S\": 1.0}, \"30\": {\"S\": 1.0}, \"31\": {\"S\": 1.0}, \"32\": {\"S\": 1.0}, \"33\": {\"S\": 1.0}, \"34\": {\"S\": 1.0}, \"35\": {\"S\": 1.0}, \"36\": {\"S\": 1.0}, \"37\": {\"S\": 1.0}, \"38\": {\"S\": 1.0}, \"39\": {\"S\": 1.0}, \"40\": {\"S\": 1.0}, \"41\": {\"S\": 1.0}, \"42\": {\"S\": 1.0}, \"43\": {\"S\": 1.0}, \"44\": {\"S\": 1.0}, \"45\": {\"S\": 1.0}, \"46\": {\"S\": 1.0}, \"47\": {\"S\": 1.0}, \"48\": {\"Cl\": 1.0}, \"49\": {\"Cl\": 1.0}, \"50\": {\"Cl\": 1.0}, \"51\": {\"Cl\": 1.0}}" source=mace_1000K frame_in_traj=500 config_type=Li6PS5Cl_md_snapshot energy=-208.6996612548828 stress="0.008612357079982758 0.0023167231120169163 -0.0010773066896945238 0.0023167231120169163 0.011569801717996597 0.00034021714236587286 -0.0010773066896945238 0.00034021714236587286 0.012862810865044594" free_energy=-208.6996612548828 pbc="T T T"
Li      -1.57861486       3.26087078       5.29802968       1.20277345      -0.69608955       0.10765086       0.04095381      -0.09200658       0.01761203      -3.48496105
Li      -3.93980278      -6.92017092      -2.86497489       0.21585789      -0.41351656      -0.15693593      -0.52580214       0.41102415       0.10212095      -3.27648935
Li      12.77631655       6.49016287      -4.97400872       1.51533428       1.10449187       0.85844911      -0.10902843       0.21343344      -0.12418509      -3.41819130
Li       1.88596179      -0.08561476       1.58500631       0.87867260       0.08602528      -1.39927864       0.15376484       0.20675313      -0.14342402      -3.54951899
Li       4.60247099       2.94964325       1.22280413       0.23614620      -0.68005011      -0.03669814       0.24728897      -0.50083208       0.35445303      -3.38658880
Li       5.52838982      -1.81884988      13.75988212       0.86459750       0.64417418      -0.47390301       0.08324818       0.07751223      -0.01229098      -3.47865139
Li      -3.00939137      12.65417236       9.98302642       0.71858566       0.87734541       0.76163263       0.25517133       0.36706883      -0.50999504      -3.40028636
Li     -10.14351536       7.59843310       6.95253634      -0.98021730       0.67997690      -1.80515823       0.36859465      -0.21702994       0.31194267      -3.57296874
Li       2.07072029       4.60243064      13.66317798      -0.71577267       0.48063968       0.53709679      -0.18671368      -0.54534006      -0.30903375      -3.50433645
Li       4.86096976      17.09465988       8.14294105       0.33046173       0.31657996       0.56100047       0.96525282      -0.31229985      -0.08050020      -3.50041269
Li       0.14246915       1.64821668       8.22067641      -0.29993292       0.50980751       1.04777389       0.28187650      -0.20549028       0.25203997      -3.64222719
Li      -0.62496166      11.92863046       1.57647596       0.56418403       0.32813310       0.87740599       0.25918412       0.66410923      -0.05617248      -3.43628839
Li       8.74047427       9.51971118      12.56481637       0.42005801       0.66980050       0.87335078       0.17106991       0.11317104       0.11631075      -3.44098175
Li       8.93262950       4.45391520      -2.31310030      -0.09412838       0.73771451       1.05052419       0.28996062       0.43974936      -0.08724863      -3.42156295
Li      18.23073765       7.34651853      15.02462605      -0.58430896      -0.07712114      -0.22699665       0.04777212      -0.45410910      -0.24324246      -3.49129687
Li      18.40996878      10.10937068       8.64804789       0.21484819       0.69731554       0.96441956       0.15968338      -0.01001419      -0.26708570      -3.58518831
Li      13.16337632      17.10297460      10.08047405      -0.36858973      -1.38086931      -1.10886802      -0.08959362       0.23313227      -0.09459321      -3.36376278
Li      11.74802558       5.02607672      17.66516333       0.14795891      -1.21597315      -0.35815454       0.34003943       0.10027251      -0.09733020      -3.54205191
Li       6.95687538       6.92426371       0.15183927      -0.98733023      -0.15686006      -0.47392879       0.28002608      -0.06149730       0.00921144      -3.56307101
Li       6.35641392       5.55823116       2.90408601      -0.99634661      -0.17532147      -0.74952844       0.84127843       0.14993237      -0.84425902      -3.41154674
Li      13.26562924       0.76713975       4.74032807       0.78178661       1.36982437       0.10823765       0.29832137       0.38056511      -0.32247031      -3.61738031
Li       2.57172638      13.97627529       0.23752254       0.62680881      -0.06260317       0.42207523      -0.09603453      -0.00819066      -0.02053817      -3.26867613
Li      14.22656898       9.47326189      -2.71426874       0.96026276      -0.02407729      -1.09550752      -0.39603287      -0.25666967      -0.01746116      -3.70093818
Li       7.33241077       0.83646477       5.91495103       1.68304230      -0.21392373       0.21666314       0.19695833      -0.32866880      -0.06411514      -3.54287891
P        5.15208962      -0.24592706       0.22655442       1.20538922       0.79616341       1.37457889      -0.72478414       0.51367009      -0.57685864      -5.52831149
P        4.82669662       4.77648384       4.61162171      -1.36927101      -1.64388897      -0.23431865      -0.14794850      -0.68329000       0.41471767      -5.41861117
P        0.14115775      -0.29092946       5.12888157      -1.55750970       2.58769115      -3.14069089      -1.93239272      -0.68324721      -0.58933955      -4.95259929
P       -0.15164210       5.42566250       0.18353269      -1.99068222       0.49252069      -0.34771111      -1.52045798      -1.02982843      -0.18780234      -5.15754104
S        0.74257945       3.84582434       9.24676475      -1.60794740      -1.03685499      -3.13398269       0.01777431       0.56375086      -0.00853321      -4.69255942
S        8.29448496       4.09096486       0.87369726      -1.39666062      -2.94991899      -0.04219330       1.65397382       1.18635511       0.24778950      -3.93745315
S        3.65211702       0.72764368       9.34248283      -2.83790152       2.43081870       1.43370365       0.65346670       0.09191006       0.86480200      -4.15321207
S        6.43346824       1.03691118       1.27243787       1.36599121      -2.43315657      -1.27388984      -0.64168477      -0.87639821      -0.31545851      -4.67387369
S        2.24449811       2.33568614       2.11564324       2.49336982      -0.39795572      -0.45947555      -0.02022859      -0.10077333       0.28422448      -3.85496187
S        0.67890024       8.59982453       3.70001362       2.63032444      -0.15344108       1.40946499       0.16323222       0.85906333       0.61313748      -4.66604576
S        8.60445012       8.84000299       6.27711642       0.82755118      -1.30251189       0.36330550       1.01225388       1.47620714      -0.19465384      -4.34884119
S        5.57193835       3.25986589       3.38372250      -1.50086900      -0.10710822       0.20172823       0.10830486       0.78984296       0.95557117      -4.39311862
S        4.02153700       6.23981956       3.34592455      -0.14053670       0.36349369      -1.17003457       0.35278392      -0.07967550       0.53139389      -4.73389342
S        2.82286685       7.04427070       7.51759598       1.73070109       0.58821086      -0.22041405      -1.10597408       0.54971224       0.37114143      -4.31057140
S        6.38321668       5.46120963       5.97690667      -3.44156732      -0.95626752       1.55499638      -0.50826311      -0.27105162      -0.60229123      -4.61085553
S        3.15775567       4.04455750       5.59352496      -0.25128354       2.61484635      -2.18297790       0.33168787      -0.20633353      -0.11771701      -4.46104454
S        8.94982285       1.21520833       3.94822083      -1.41221645       0.19929555       2.92976109       0.71613610      -0.60297024       0.61727005      -4.53805088
S        1.45533222       0.40594020       6.47526161      -0.52337537      -1.67392112      -0.77213318      -0.16875918       0.06833670      -0.03312979      -4.89663546
S        8.34483459       2.31388542       7.83178548       1.90797456      -2.70704386       0.36761573      -1.29901791      -0.74232924      -1.00963652      -4.70976998
S        5.99480940       9.02669600       8.80000404      -0.66836480      -1.53180591      -1.85919073       0.18935400      -0.42185944       1.09263873      -4.72646070
S        4.09957808       8.91410853       1.64617591      -1.68278841       1.40893049      -1.21380336       0.06138912       0.13051438      -0.80717593      -4.61734639
S        9.14540019       6.61842351       8.95041481      -2.88176573       3.72387188       3.04111932       0.44736347      -0.30782813       0.96031225      -4.55167505
S        1.20194746       6.18398438       1.52594075       0.22223987      -1.02009287       0.49596562      -0.45112646      -0.33818141      -0.80169356      -4.76029389
S        7.58730851       7.61903663       2.41820783       1.59145796      -0.83666459       0.49974332      -0.77726912      -0.49063104       0.16291255      -4.12438524
Cl      -0.20083977      -0.02127782      -0.38228158       3.32061509      -1.78299698      -0.25217195       0.02996996       0.11567683       0.76875204      -3.57617825
Cl      -0.13088245       5.09612459       5.63478565      -0.76125778       1.20574592       0.01004354      -0.03427988       0.16631801       0.09893171      -3.63803387
Cl       5.03625764      -0.03603459       5.76985865      -0.27948838       0.28060004       0.15842417       0.06708740       0.07293150      -0.82747060      -3.45803744
Cl       5.25042678       4.89798230      -0.74948801       0.67311840       0.43601826       1.96121580      -0.34983125      -0.11446765       0.21842059      -3.60894984
52
Lattice="10.279498 0.0 0.0 0.0 10.279498 0.0 0.0 0.0 10.279498" Properties=species:S:1:pos:R:3:momenta:R:3:forces:R:3:energies:R:1 spacegroup="_JSON {\"number\": 1, \"setting\": 1}" unit_cell=conventional occupancy="_JSON {\"0\": {\"Li\": 1.0}, \"1\": {\"Li\": 1.0}, \"2\": {\"Li\": 1.0}, \"3\": {\"Li\": 1.0}, \"4\": {\"Li\": 1.0}, \"5\": {\"Li\": 1.0}, \"6\": {\"Li\": 1.0}, \"7\": {\"Li\": 1.0}, \"8\": {\"Li\": 1.0}, \"9\": {\"Li\": 1.0}, \"10\": {\"Li\": 1.0}, \"11\": {\"Li\": 1.0}, \"12\": {\"Li\": 1.0}, \"13\": {\"Li\": 1.0}, \"14\": {\"Li\": 1.0}, \"15\": {\"Li\": 1.0}, \"16\": {\"Li\": 1.0}, \"17\": {\"Li\": 1.0}, \"18\": {\"Li\": 1.0}, \"19\": {\"Li\": 1.0}, \"20\": {\"Li\": 1.0}, \"21\": {\"Li\": 1.0}, \"22\": {\"Li\": 1.0}, \"23\": {\"Li\": 1.0}, \"24\": {\"P\": 1.0}, \"25\": {\"P\": 1.0}, \"26\": {\"P\": 1.0}, \"27\": {\"P\": 1.0}, \"28\": {\"S\": 1.0}, \"29\": {\"S\": 1.0}, \"30\": {\"S\": 1.0}, \"31\": {\"S\": 1.0}, \"32\": {\"S\": 1.0}, \"33\": {\"S\": 1.0}, \"34\": {\"S\": 1.0}, \"35\": {\"S\": 1.0}, \"36\": {\"S\": 1.0}, \"37\": {\"S\": 1.0}, \"38\": {\"S\": 1.0}, \"39\": {\"S\": 1.0}, \"40\": {\"S\": 1.0}, \"41\": {\"S\": 1.0}, \"42\": {\"S\": 1.0}, \"43\": {\"S\": 1.0}, \"44\": {\"S\": 1.0}, \"45\": {\"S\": 1.0}, \"46\": {\"S\": 1.0}, \"47\": {\"S\": 1.0}, \"48\": {\"Cl\": 1.0}, \"49\": {\"Cl\": 1.0}, \"50\": {\"Cl\": 1.0}, \"51\": {\"Cl\": 1.0}}" source=mace_1000K frame_in_traj=600 config_type=Li6PS5Cl_md_snapshot energy=-207.98046875 stress="0.0062909661792218685 -0.007657073903828859 -0.00011134293890791014 -0.007657073903828859 0.003975079394876957 -0.005560480989515781 -0.00011134293890791014 -0.005560480989515781 0.006909337360411882" free_energy=-207.98046875 pbc="T T T"
Li      -5.26272539       8.13292967       3.50783801       0.13920893      -0.94769272       0.48847052       0.34284335      -0.24804014      -0.35933161      -3.62080102
Li      -3.32255466      -5.98617191      -1.99460706       1.10589280      -0.35538891       0.29655451      -0.31136116      -0.26489502      -0.47146291      -3.13509220
Li      13.53251855       4.18978061      -2.27242902      -0.66258497       0.10472317      -1.29341381      -0.17316499       0.71543133       0.79908890      -3.40620118
Li       2.19580450      -0.33168274       1.78043761       0.70741629       1.30921171       0.04011870      -0.04974553       0.16434216       0.01351186      -3.60142745
Li       4.82647454       1.93463009       3.13681100       0.54075934       1.32750763      -2.07057536       0.25922361      -0.30363461      -0.03204580      -3.64305161
Li       7.02529988      -0.29269443      13.65741627      -0.91110619      -1.29772239       0.00545766      -0.25332230       0.25828800       0.12083714      -3.57144158
Li      -0.31669625      11.26333425       8.80214388      -0.24984758       0.27483901       0.26452539       0.19590437      -0.14242618      -0.42749977      -3.52661787
Li     -10.94648541       4.20382519       7.62105357       1.19491651      -1.21330863      -1.53750713      -0.15146527      -1.17438877       1.01901388      -3.36519417
Li       0.36179907       2.08638520      12.30829378       0.59420480      -0.00879561      -1.26388994       0.38597634       0.47414961      -0.45028508      -3.42624814
Li      -0.07141592      17.64111204       8.32805343       0.26559842       0.75563957      -0.52041654       0.23299293      -0.05212510       0.07261585      -3.56350099
Li      -2.23390954       2.27571877       9.83503605      -0.79527372       0.45330307       0.03547562      -0.25433350       0.08679308       0.72652370      -3.22933936
Li       1.58136353      12.67001698       4.52815408      -0.30398409      -0.37371323       0.19424420       0.34905523      -0.01277471      -0.02538890      -3.40743533
Li      12.90624487       9.22018112      16.58258775       0.43433574      -0.92855371      -0.59651480       0.09880590       0.04363326       0.14881104      -3.38081675
Li       6.99478237       5.53444902      -7.90106366      -0.24209298      -1.61714347      -0.66551143       0.19652966       0.03027718       0.33028644      -3.45696846
Li      20.31259343       8.14284973      12.20198400       0.16164780       0.39582554       0.09444920      -0.32834971      -0.10337965      -0.05150873      -3.68946935
Li      15.35532996      12.10834770       7.05993894       0.37028612       1.24615771      -0.64819572       0.11551842      -0.21524428       0.04780576      -3.35448861
Li      12.13096943      16.80760075       5.44542978       0.38853853       0.42821765      -0.14749587       0.10596272      -0.11355944       0.05596853      -3.56763874
Li      13.04065872       7.92564901      20.06465701       0.84150986       0.84702951      -0.70740391      -0.70793015       0.22359213       0.17256412      -3.48097335
Li       7.23573307       7.54819192       0.37355982      -0.15709191       0.07034756      -0.89126863      -0.01178975       0.14715670      -0.59344888      -3.44967221
Li       8.24209006       6.95231326       5.21134401       0.92167553      -0.05983018       0.84697598      -0.37956530       0.20159662      -0.66033268      -3.65590356
Li      12.94843666       4.38042137       2.00944068       0.48299162       1.04106086      -0.84682389       0.00058005       0.13322406      -0.00830167      -3.69494934
Li       3.48962753      12.50568968       0.56972784      -0.24962004      -0.61179495       1.79188486       0.35967946       0.28143561      -0.86112094      -3.54981250
Li      15.34929268       7.58912398      -2.03388859       1.00749805      -0.09539734      -1.83061708      -0.12267951      -0.40005875      -0.42072368      -3.30198345
Li       8.01666313       1.73587480       5.41761227      -1.56618697       0.43657028      -0.16353296       0.06551736      -0.00289907      -0.33031881      -3.49552150
P        5.24342559      -0.26703970      -0.28808213      -0.39210088       0.93295607       0.21547417      -0.21622139       1.26012051      -0.43244904      -5.15419769
P        4.87077466       4.61501181       4.82459241       0.15942760       2.50974437      -2.46460518      -0.59060037       0.32070968      -1.24290538      -5.52341044
P       -0.15368565      -0.38819080       4.77913140      -2.21176800       0.95260943       4.08807178      -0.50718868      -0.22468339      -0.35575417      -5.32722998
P       -0.41515585       5.03726877       0.48205512      -3.48204597       1.26598526       0.05338794       0.09412239      -0.80742693       0.08833008      -5.65168083
S        0.66522993       3.30436290       9.89825014      -1.75198964       0.74779841      -2.46108231      -1.05561602      -0.06236321       0.12637220      -4.48861091
S        9.60481139       5.05925700       2.52757653       1.45599064      -2.35821996       0.88592761      -0.37510407      -0.66446882      -0.68059242      -4.34658381
S        3.60384797       0.82937731       8.88986924       1.45386796      -0.50149189      -2.24566524       0.94054258      -0.80374503      -0.37213817      -4.28736493
S        5.87158788       1.58242301       0.64918128      -1.70875633       2.13656657       3.59730860       0.45375285      -1.33946800      -0.08910953      -4.46487972
S        2.71143120       1.88776314       2.51808603       1.27108628      -0.40488727      -0.51161062      -1.56272626       0.24021202       0.68861908      -4.36748031
S        1.24214129       8.64119288       3.78520453       1.45375282       0.17967365       0.25725295      -0.30435094       0.20181921       0.76860821      -4.74048877
S        8.80600667       9.01917235       6.14093507       2.20055183      -2.92771995      -0.86149694       0.36221915       0.35581446      -0.68452585      -4.35462874
S        6.42398988       3.44302855       4.04404550       1.11379812      -3.19515981       1.88981809      -0.33495200      -0.08818570      -0.47955412      -4.47006190
S        3.76575863       6.12641540       3.57940507      -1.09503825       1.65410650       0.22005875       0.11789058      -1.32525873       0.68499422      -4.35525891
S        2.85802904       7.01771989       7.83294243       2.84336078       1.43707291       1.56959401      -0.32751739      -0.12642005      -1.70160961      -4.10656333
S        6.08671549       5.79711768       5.81041739       1.72878319      -2.43150165       2.83180350       0.59718204       1.11208808       1.88081121      -4.40331793
S        3.43480134       3.49669035       5.81310871      -1.59744048      -1.25206807      -0.79467999       0.13794956      -0.23394026       0.05452183      -4.81900002
S        9.14168273       0.65589427       2.98609137      -3.11599765      -1.31550221      -3.89238047       0.43253738      -0.19726582       1.56608939      -4.46167074
S        0.68050115       0.88505934       6.16964636      -0.62264519      -3.02836918       2.83644186       0.57739854      -0.00649734      -0.31085205      -4.67161483
S        7.98076003       2.03606489       7.65456702       0.73628416      -1.02371001      -1.40051791      -0.38991341       1.14995420       0.09081240      -4.33662546
S        6.73522152       9.04449189       8.76735794      -3.25867291      -2.46567803       0.87005069      -0.90777236       0.74435061       1.02451837      -4.61852010
S        4.16536211       8.78588268       0.97374485       1.52720925      -0.00738087       0.28558483       0.90320438       0.23533562       0.08853619      -4.81346799
S        8.40190122       5.77986645       9.30285114       2.17238126      -1.14668481       4.49323317      -0.01216610      -0.32547987       0.64850551      -4.70473292
S        1.04117739       6.34358389       0.28072374      -0.99112825       0.94233846       1.28848713       0.66894513       0.85330415       0.30454722      -4.06565887
S        7.40505265       8.01227850       2.51977152       0.88553116       2.86333610       0.79484387      -0.04720696      -1.13177466       0.43758374      -4.07674390
Cl       0.47154586      -0.86313809      -0.06442855      -2.80663579       2.07751872       0.81626192      -0.00266696       0.23543815      -0.10992812      -3.48158431
Cl      -0.54378175       5.68581709       6.19203322      -0.67561063       0.80901446       0.55843409       0.95585918       0.44133466      -0.72678882      -3.46436554
Cl       4.80533736      -0.13012123       4.45260169       0.49025020       1.04698370      -2.87563034       0.30910885       0.17972557       0.51688349      -3.54625839
Cl       4.29702593       4.37193366       0.37340447       0.19886470       1.32157589      -0.91935702       0.11840803       0.28027666      -0.59878421      -3.30383116
52
Lattice="10.279498 0.0 0.0 0.0 10.279498 0.0 0.0 0.0 10.279498" Properties=species:S:1:pos:R:3:momenta:R:3:forces:R:3:energies:R:1 spacegroup="_JSON {\"number\": 1, \"setting\": 1}" unit_cell=conventional occupancy="_JSON {\"0\": {\"Li\": 1.0}, \"1\": {\"Li\": 1.0}, \"2\": {\"Li\": 1.0}, \"3\": {\"Li\": 1.0}, \"4\": {\"Li\": 1.0}, \"5\": {\"Li\": 1.0}, \"6\": {\"Li\": 1.0}, \"7\": {\"Li\": 1.0}, \"8\": {\"Li\": 1.0}, \"9\": {\"Li\": 1.0}, \"10\": {\"Li\": 1.0}, \"11\": {\"Li\": 1.0}, \"12\": {\"Li\": 1.0}, \"13\": {\"Li\": 1.0}, \"14\": {\"Li\": 1.0}, \"15\": {\"Li\": 1.0}, \"16\": {\"Li\": 1.0}, \"17\": {\"Li\": 1.0}, \"18\": {\"Li\": 1.0}, \"19\": {\"Li\": 1.0}, \"20\": {\"Li\": 1.0}, \"21\": {\"Li\": 1.0}, \"22\": {\"Li\": 1.0}, \"23\": {\"Li\": 1.0}, \"24\": {\"P\": 1.0}, \"25\": {\"P\": 1.0}, \"26\": {\"P\": 1.0}, \"27\": {\"P\": 1.0}, \"28\": {\"S\": 1.0}, \"29\": {\"S\": 1.0}, \"30\": {\"S\": 1.0}, \"31\": {\"S\": 1.0}, \"32\": {\"S\": 1.0}, \"33\": {\"S\": 1.0}, \"34\": {\"S\": 1.0}, \"35\": {\"S\": 1.0}, \"36\": {\"S\": 1.0}, \"37\": {\"S\": 1.0}, \"38\": {\"S\": 1.0}, \"39\": {\"S\": 1.0}, \"40\": {\"S\": 1.0}, \"41\": {\"S\": 1.0}, \"42\": {\"S\": 1.0}, \"43\": {\"S\": 1.0}, \"44\": {\"S\": 1.0}, \"45\": {\"S\": 1.0}, \"46\": {\"S\": 1.0}, \"47\": {\"S\": 1.0}, \"48\": {\"Cl\": 1.0}, \"49\": {\"Cl\": 1.0}, \"50\": {\"Cl\": 1.0}, \"51\": {\"Cl\": 1.0}}" source=mace_1000K frame_in_traj=700 config_type=Li6PS5Cl_md_snapshot energy=-207.95059204101562 stress="-0.0021857307292521 -0.0005136662512086332 -0.0020864796824753284 -0.0005136662512086332 -0.00033173838164657354 0.008647462353110313 -0.0020864796824753284 0.008647462353110313 -0.00916313473135233" free_energy=-207.95059204101562 pbc="T T T"
Li      -7.17628784      10.60451482       3.40401668      -0.44627759      -1.15262452      -1.20204327      -0.12094411      -0.19276533      -0.33877453      -3.45587789
Li      -1.85598237     -11.42580202      -6.26973152       0.46853427       0.43964822       0.30987090      -0.95350003      -0.32146233      -0.71951097      -3.16461143
Li       9.64884814      10.89773211       1.52842201      -0.78703540       1.60104218       0.57577032       0.21313661      -0.00415246       0.40139991      -3.54153274
Li       2.87288559       3.12142134       4.78198011      -1.04413078      -0.26859164      -0.20639796      -0.19655970      -0.46914083      -0.50795060      -3.51471649
Li       3.71558803       4.22147310       1.72940899      -0.13750011       0.74923047       0.51123192       0.21201643       0.43384397      -0.12725157      -3.48593517
Li       1.10583262      -0.84517920      18.00695988       0.06006433       0.25452110       0.23455651       0.11816136      -0.16286242      -0.11810166      -3.55617113
Li      -2.08133521      10.40077399       8.79035106      -0.75236280       0.66946324       1.28757470       0.22187014       0.40950733      -0.10507886      -3.60966881
Li      -8.14624100       0.77949247      10.27353468       0.20693892       0.27141111       1.68830403       0.18226087       0.31504884       0.22529304      -3.56601055
Li       0.72734592       3.71735443      12.90026880       0.02757668       0.49017319      -0.27403040       0.01585325      -0.18025225      -0.11975171      -3.39348011
Li       7.65387613      14.62142151       7.25815514      -1.06882362       0.88507681       0.48734354      -0.04076587       0.54593146      -0.10309464      -3.45774330
Li      -0.36181297       2.89872023       7.07008020       0.48901393      -1.08195280       0.18462760      -0.13099226      -0.47682232      -0.30517551      -3.56154473
Li      -4.86412819      10.59281760       2.54720688      -0.06066847       1.53438401      -0.12495257       0.29562569       0.20160420      -2.08858991      -3.15802112
Li      14.03284382       5.57780150      18.94669557      -0.18617021       0.88420886      -0.97594765      -0.19519904       0.16826224       0.00822683      -3.57720117
Li       5.30941639       7.88995456      -5.88461059       0.69425585      -1.24550152       0.05081428       0.17762130      -0.42107141      -0.18152121      -3.43734869
Li      22.17983701       5.39016602      17.02963180      -0.27077048      -0.82781604       0.92639544       0.61416328      -0.53946537       0.14662068      -3.35053079
Li      17.61832817      15.37543051      12.21117755      -1.11295931      -1.02154785       0.38470234      -0.26239157      -0.34208548      -0.12324948      -3.44246151
Li      12.35184786      18.07796650      10.40382724      -0.16000331       0.66447281       0.19180045      -0.13649026      -0.03890853      -0.08428451      -3.55766580
Li      10.03286201       6.61221559      17.35754141      -1.72043269      -1.29164626       0.74828941      -0.30334181       0.56049240       0.54755127      -3.29979275
Li       6.64678785      11.16789743      -4.47561748       1.35581004      -1.03228364       0.03981512       0.86785042       0.78356236       0.83002627      -3.36701017
Li       6.94456603       7.48197588       0.56003929      -0.55131747      -0.39306902      -0.04506894      -0.61453933      -0.22238526      -1.67202008      -3.37595743
Li       9.71002460       7.39838641       1.84261229      -0.21889948      -1.06744336      -0.11278161      -0.08636481      -0.23537266      -0.20287435      -3.39516693
Li       5.63866154      12.98837396      -1.47722086      -0.32892404       1.10482235      -1.79323783       0.16627292      -0.23504399      -0.30437705      -3.43056224
Li      14.33056941       8.16090117      -2.62613220      -0.30206335      -0.09111314      -0.08807128       0.12062128       0.23261791      -0.03759742      -3.52232417
Li       8.25180668      -3.95892944       4.65398009       0.05702048       0.59817812       0.83282841      -0.34353438      -0.25455731      -0.04300679      -3.27411211
P        5.07467993      -0.15494496      -0.43406860       0.12590321       1.43078130      -3.56545003      -0.79073769       0.90253687       0.95621037      -5.98172176
P        4.70154293       5.04697209       5.63464522       0.16801627       1.13165483      -2.88051988       2.80179787       0.98952699      -0.49197924      -5.61595619
P        0.65708498      -0.36635390       4.38841332       0.38010439      -3.17400708      -0.35050557      -0.24952313      -0.11863695       0.03507105      -5.42412829
P       -0.23493121       4.31112443      -0.16692713       1.40648867      -1.73564580      -0.93806803      -0.45576966       0.66978216      -0.32327586      -5.69637346
S        0.95144853       3.30357471       8.81694876      -1.74537870      -1.06917838      -2.85071074       0.63747025       0.04347438       0.14237589      -4.45543140
S       11.21231839       5.66325965       0.85222031      -3.09976643      -0.00005489       1.29605457       0.27429020      -0.26971757       1.04138505      -4.54445422
S        3.92670179       0.45416689       8.30173209      -1.12595766       0.63066537       1.61262698      -0.57106376       0.18257275      -0.39686584      -4.43736827
S        5.61721109       1.53994284       0.67432633       1.48445977      -1.61136453      -0.61792108       0.62877095       0.06163556      -0.67485714      -4.30844715
S        2.66316803       2.29664946       2.28959380       2.40494371       2.93175317      -3.42606447      -0.31392941       0.04454374       0.27384561      -4.06775457
S        1.15070061       8.78660588       2.62276542      -1.61339069      -1.61038792      -1.81238834      -0.18252085       0.71978557       1.44760144      -4.37317488
S        9.66510017       8.93789097       5.82476089       2.69152237       0.37978300       2.38128292       0.50691712      -1.43131673       1.03575659      -4.50568594
S        6.23897830       4.29824748       4.38131357      -0.76722848      -1.18002806      -0.88651869      -0.62895536      -0.02341056       0.37384045      -4.21569884
S        3.00782308       5.69370029       4.85427227       3.73298505      -1.38102249       1.44506930      -1.01812851       1.29916883      -2.16379118      -4.35445896
S        1.96574146       7.22194864       8.17353867       1.69417521       1.84227167      -1.33389263       0.05868137      -0.13549548      -0.57668883      -4.40792292
S        5.80458025       6.59546137       6.65965560       0.49338515       0.81513918       4.27510334      -0.37763074      -0.35264602      -0.49913892      -4.53463413
S        3.75237038       3.87462585       6.91986186       1.47344479       2.60350889      -0.55518156       0.11784108      -1.92516136       2.04037046      -4.65454184
S        9.38602225       0.95899993       4.08522968       1.99494759       2.73960185       0.10574705      -0.11650193       1.02864861      -1.17877460      -4.31888509
S        2.09750655       0.64963561       5.42203426       0.86797767      -0.64614091       2.67414149      -0.35797262      -0.21992908       0.52830631      -4.51067941
S        7.83000639       2.09707684       7.43147758       1.95260582      -0.31209068       0.60288700      -0.77947104      -0.48690456       0.48067665      -4.11998492
S        6.41467753       8.91924731       9.04583140      -1.31075499       0.52695577      -1.31124809       1.15069652      -0.69997424      -0.54445016      -4.56828542
S        3.98967687       9.05359343       0.93494349      -2.61007503       1.53501779       0.09821415      -0.11558704       0.08223086       0.48606202      -4.35732198
S        9.23723509       2.83832582      11.32849120      -1.34332433       1.98201348       0.56781958      -0.43455362       1.11203432       0.09827174      -4.44942519
S       -1.51183819       5.87376193      -1.02953412       0.15222895      -2.11447407       1.24921454      -0.05690265      -0.95219076      -0.06799515      -4.35779417
S        7.36852335       7.34278685       2.55910266       1.91681086      -0.69814077      -1.45147063       0.95748574       0.44538516       2.30581808      -4.56831066
Cl       0.05370288      -0.53742760      -0.31915085      -0.98670229      -2.33282163      -0.73601917      -0.05507142       0.09582188      -0.53434658      -3.70723236
Cl      -0.36306816       4.59667785       5.60649290      -1.11138202       0.22325201      -0.76301136      -0.08153589       0.83349699      -0.20951742      -3.80075920
Cl       5.38605290      -0.02487063       4.45900168      -0.57879097      -0.55896563       3.61041492      -0.55857384      -0.92065233       1.17158556      -3.66345382
Cl       5.01366380       5.71031153       0.29275507      -0.85812324      -1.02111886      -0.07099999       0.18964803      -0.52913225       0.26759592      -3.45511281
52
Lattice="10.279498 0.0 0.0 0.0 10.279498 0.0 0.0 0.0 10.279498" Properties=species:S:1:pos:R:3:momenta:R:3:forces:R:3:energies:R:1 spacegroup="_JSON {\"number\": 1, \"setting\": 1}" unit_cell=conventional occupancy="_JSON {\"0\": {\"Li\": 1.0}, \"1\": {\"Li\": 1.0}, \"2\": {\"Li\": 1.0}, \"3\": {\"Li\": 1.0}, \"4\": {\"Li\": 1.0}, \"5\": {\"Li\": 1.0}, \"6\": {\"Li\": 1.0}, \"7\": {\"Li\": 1.0}, \"8\": {\"Li\": 1.0}, \"9\": {\"Li\": 1.0}, \"10\": {\"Li\": 1.0}, \"11\": {\"Li\": 1.0}, \"12\": {\"Li\": 1.0}, \"13\": {\"Li\": 1.0}, \"14\": {\"Li\": 1.0}, \"15\": {\"Li\": 1.0}, \"16\": {\"Li\": 1.0}, \"17\": {\"Li\": 1.0}, \"18\": {\"Li\": 1.0}, \"19\": {\"Li\": 1.0}, \"20\": {\"Li\": 1.0}, \"21\": {\"Li\": 1.0}, \"22\": {\"Li\": 1.0}, \"23\": {\"Li\": 1.0}, \"24\": {\"P\": 1.0}, \"25\": {\"P\": 1.0}, \"26\": {\"P\": 1.0}, \"27\": {\"P\": 1.0}, \"28\": {\"S\": 1.0}, \"29\": {\"S\": 1.0}, \"30\": {\"S\": 1.0}, \"31\": {\"S\": 1.0}, \"32\": {\"S\": 1.0}, \"33\": {\"S\": 1.0}, \"34\": {\"S\": 1.0}, \"35\": {\"S\": 1.0}, \"36\": {\"S\": 1.0}, \"37\": {\"S\": 1.0}, \"38\": {\"S\": 1.0}, \"39\": {\"S\": 1.0}, \"40\": {\"S\": 1.0}, \"41\": {\"S\": 1.0}, \"42\": {\"S\": 1.0}, \"43\": {\"S\": 1.0}, \"44\": {\"S\": 1.0}, \"45\": {\"S\": 1.0}, \"46\": {\"S\": 1.0}, \"47\": {\"S\": 1.0}, \"48\": {\"Cl\": 1.0}, \"49\": {\"Cl\": 1.0}, \"50\": {\"Cl\": 1.0}, \"51\": {\"Cl\": 1.0}}" source=mace_1000K frame_in_traj=800 config_type=Li6PS5Cl_md_snapshot energy=-209.47293090820312 stress="0.0014636742416769266 -0.0015786103904247284 0.006613722536712885 -0.0015786103904247284 0.006468395236879587 -0.00016749829228501767 0.006613722536712885 -0.00016749829228501767 0.007631747052073479" free_energy=-209.47293090820312 pbc="T T T"
Li      -6.94427877      10.19805182       2.41817650       0.48445407       1.93811256       0.74426068       0.08154520       0.11628294      -0.05121925      -3.38883033
Li      -2.91341702     -13.11782261      -5.42300763       0.97665271      -0.41884400      -0.63781856       0.09103486      -0.03646732       0.70822251      -3.40667962
Li       8.01302829       9.78401032      -2.24606065      -1.33987612       1.55106461       1.54100984       0.02516764       0.42940891       0.07567094      -3.39833659
Li       3.78536309       1.63594008       4.71124904       1.73416306      -0.05820623       0.12764299      -0.27974129       0.52071112      -0.35376164      -3.52191366
Li       7.27857602       1.86213044      -0.14234920       0.15975368      -0.32154606       0.19036578      -0.33177203       0.32013208      -0.21686769      -3.40898129
Li       5.52214584      -1.84503811      23.36516339      -0.62882184       1.11248562       0.39076877      -0.00648201       0.26639497      -0.01761066      -3.46923766
Li      -0.90208447      12.54358926       8.10499092       0.27388091      -0.17485185       0.01748444       0.30763918       0.23622508      -0.03599349      -3.29551746
Li     -11.04080013      -0.16802195      11.99136080       0.63748198      -0.55229045       0.40105598      -0.35723516      -0.12233464       0.14966154      -3.41079695
Li       2.97417553       4.43701800      12.31391031      -0.77119483      -0.75994107       0.57455391       0.39420545       0.48543707      -0.33142176      -3.44467606
Li       8.41830418       4.87472365      13.58319078      -0.10080943       0.01422919      -0.01673340      -0.04072066       0.39104828      -0.06549306      -3.47245541
Li      -2.60853661       4.35887077       6.55881614      -1.06300402       0.42950231      -0.11150871      -0.18412571      -0.11718751       0.03124838      -3.64020459
Li      -9.36999725      13.62895416       3.00140538       0.08709142       0.23619892      -0.82624605       0.34829375      -0.12445594      -0.02827318      -3.45457204
Li      11.78805154       8.56588799      20.96716609       0.09662222      -0.68039510      -0.03725837       0.16529928      -0.26228490      -0.02650887      -3.47238103
Li       7.00721901       1.12299323      -4.85134245      -0.67328114      -1.35041954       0.73063912       0.04760371      -0.00934169      -0.20661840      -3.47503471
Li      21.47385652       9.86662009      17.85070606      -1.41917453      -0.63986842       0.69961692       0.08992168      -0.03346699      -0.28715688      -3.47025560
Li      15.85264550      16.05651581      12.48056060      -0.18214550      -0.73221633      -0.06180589       0.01465152      -0.35579056      -0.26551381      -3.58798690
Li      10.88794345      16.97812252       8.01712403      -0.13838227       0.85146750      -0.24017516       0.52974153      -0.69993460      -1.22268760      -3.47680661
Li      14.27606050       5.54767669      18.64689847       0.47424532      -0.10498556       1.16159890       0.18591177      -0.04974728       0.04197992      -3.61519261
Li       7.91713483      16.58695167      -9.69802826       0.18889009       0.21820543      -0.47996190      -0.64833516       1.02908647      -0.23912969      -3.56421003
Li       5.02257003       2.14521191      -2.26333829       0.02422970       0.08641607       0.07835643      -1.24843907       0.54169512       0.20505327      -3.28529522
Li      10.67711761       8.01677073       5.35383020      -0.28749949      -0.41472274       1.24232121      -0.21417241      -0.56114024       0.06124881      -3.46658945
Li       3.82185412       9.78550942      -3.25719987       0.10455132       0.78028337      -0.40605279      -0.07151754      -0.40786809      -0.03747619      -3.56384379
Li      13.27444939       7.86349508      -5.43902670      -0.95657639      -0.77478377      -1.17637576       0.21972577       0.59167665      -0.08692685      -3.44694328
Li      12.23616425      -8.27667070       0.21540341       0.39968627      -0.15647425      -1.02334619       0.25989050       0.00919035      -0.08150335      -3.41245488
P        5.33651981      -0.94335012      -0.17225740       3.80715248      -2.65989064       0.14811717       0.81656539       0.40839446      -0.65692329      -5.75463414
P        4.87465646       5.01626336       5.20039844      -0.53679809      -2.20282358      -1.77593259       0.31685513       0.45323807       0.01899159      -5.89516580
P        0.01917340       0.53615587       4.68049756       2.60708067      -2.08735349      -0.51435767       0.42574230       0.33754641       0.07521056      -5.57720840
P       -0.12287302       5.18788004       0.16583558      -0.22037157      -0.07724297       0.85039122       1.15035927       0.65607071       0.09043786      -5.34659195
S        1.07465843       4.10084945       9.11356864       1.49915141       1.59379045       0.39700420      -0.28691697       0.20997173       0.34491664      -4.55643311
S       11.03311615       5.70441175       2.01196561      -0.24482631       0.27896460       0.93518985      -0.17642026      -0.79356039      -0.49236643      -4.58628771
S        3.96014424       0.40019038       9.22896018       1.13255089       0.20692894      -0.65197935      -0.02043468       0.03721479      -0.11051023      -4.59367095
S        6.30348593       0.18407252       1.29356180       0.45485609      -0.37354613      -1.44946022       0.25304666      -0.24350965      -0.33696684      -4.45005535
S        3.14628753       2.23114045       2.28692872      -0.16127934       1.22118493       2.12601316      -0.94914663      -0.42678142       0.39000523      -4.05333585
S        1.01187808       9.36153435       3.41390097       1.10261745      -0.30068094      -0.60185677      -0.18121815       0.24940151      -0.18476768      -4.68243249
S        8.95991030       9.69098344       5.82910335      -0.55785931      -3.15375616      -0.83164630      -0.15075396      -0.22250850      -0.21460658      -4.73780426
S        6.12100826       3.91012546       4.07221271       1.08727610       0.80299576      -2.31912534       0.68670022      -0.51373076      -0.22954845      -4.47225392
S        3.74396173       6.08465955       3.75118321      -0.20377367       4.38601457       0.67761344       0.31316274      -0.29461071       0.13970645      -4.69355494
S        2.18728708       8.10976519       6.87281226      -1.68245732      -1.54161821       2.12826037      -0.19368783      -0.38739073       0.70999104      -4.22953981
S        5.94401750       6.02471551       6.70031323       1.33598676       0.71811024       1.62867941      -0.28983161       0.26372030      -0.69681197      -4.46726139
S        3.66734242       3.81317118       6.23265383       0.55013698       4.02594846      -1.16200637      -0.52682495      -0.64914274       0.69341666      -4.41553056
S        9.35843262       2.02501209       3.62924080       1.07410115      -0.71530287       0.67593164      -0.17163667      -0.64746344      -0.02059811      -4.58671292
S        1.35954289       1.40216698       5.97075217       0.27927283      -1.44640834      -1.36384240      -0.35475770      -0.13648847      -0.13283068      -4.48057477
S        7.04912201       2.09845503       7.56369378      -3.16647029       1.42084345      -3.12770327       2.00597095      -0.28431669       0.17676833      -4.50057279
S        6.58138488       8.18553101       8.80179067      -5.00139504       0.37929316       0.71887238      -0.82902288       0.68239051       0.91341573      -4.21949524
S        4.12403931       8.04564164       0.75358144      -0.98099767       3.75035855      -0.67841625      -0.91074264      -0.53102320       0.65518183      -4.65385786
S        8.44658259       4.14169134      10.71197619      -1.23439985      -2.18336534       0.14663967       0.06711805      -0.53749382       0.10118675      -4.64775594
S       -0.35989417       7.38450789      -0.50896866       0.08582436       0.77310894      -2.24082296      -0.40426335      -1.57844424       1.26674974      -4.35716605
S        7.35016203       7.16378286       2.65710948       2.89781277      -2.01040687      -1.33452860       0.54932886      -0.30731773      -0.02334549      -4.18678713
Cl       0.09598425      -0.03041789      -0.63336499      -2.85562022       0.78900676       3.63583904      -0.18504795       1.27732527       0.29168659      -3.71308386
Cl      -0.66640024       5.50376155       5.92327592       0.05956003       0.34861084       3.18080644      -0.06293365       0.40861467      -0.17964961      -3.38673383
Cl       4.87561439      -0.53469768       4.87876226      -0.58988316      -2.00396626      -3.60436834       0.07048467       0.17833331      -0.23975751      -3.84844840
Cl       5.15505073       4.41587949       0.10706307       1.38181476      -0.01721935       1.52429581      -0.33978468       0.23429126      -0.06790449      -3.23063141
52
Lattice="10.279498 0.0 0.0 0.0 10.279498 0.0 0.0 0.0 10.279498" Properties=species:S:1:pos:R:3:momenta:R:3:forces:R:3:energies:R:1 spacegroup="_JSON {\"number\": 1, \"setting\": 1}" unit_cell=conventional occupancy="_JSON {\"0\": {\"Li\": 1.0}, \"1\": {\"Li\": 1.0}, \"2\": {\"Li\": 1.0}, \"3\": {\"Li\": 1.0}, \"4\": {\"Li\": 1.0}, \"5\": {\"Li\": 1.0}, \"6\": {\"Li\": 1.0}, \"7\": {\"Li\": 1.0}, \"8\": {\"Li\": 1.0}, \"9\": {\"Li\": 1.0}, \"10\": {\"Li\": 1.0}, \"11\": {\"Li\": 1.0}, \"12\": {\"Li\": 1.0}, \"13\": {\"Li\": 1.0}, \"14\": {\"Li\": 1.0}, \"15\": {\"Li\": 1.0}, \"16\": {\"Li\": 1.0}, \"17\": {\"Li\": 1.0}, \"18\": {\"Li\": 1.0}, \"19\": {\"Li\": 1.0}, \"20\": {\"Li\": 1.0}, \"21\": {\"Li\": 1.0}, \"22\": {\"Li\": 1.0}, \"23\": {\"Li\": 1.0}, \"24\": {\"P\": 1.0}, \"25\": {\"P\": 1.0}, \"26\": {\"P\": 1.0}, \"27\": {\"P\": 1.0}, \"28\": {\"S\": 1.0}, \"29\": {\"S\": 1.0}, \"30\": {\"S\": 1.0}, \"31\": {\"S\": 1.0}, \"32\": {\"S\": 1.0}, \"33\": {\"S\": 1.0}, \"34\": {\"S\": 1.0}, \"35\": {\"S\": 1.0}, \"36\": {\"S\": 1.0}, \"37\": {\"S\": 1.0}, \"38\": {\"S\": 1.0}, \"39\": {\"S\": 1.0}, \"40\": {\"S\": 1.0}, \"41\": {\"S\": 1.0}, \"42\": {\"S\": 1.0}, \"43\": {\"S\": 1.0}, \"44\": {\"S\": 1.0}, \"45\": {\"S\": 1.0}, \"46\": {\"S\": 1.0}, \"47\": {\"S\": 1.0}, \"48\": {\"Cl\": 1.0}, \"49\": {\"Cl\": 1.0}, \"50\": {\"Cl\": 1.0}, \"51\": {\"Cl\": 1.0}}" source=mace_1000K frame_in_traj=900 config_type=Li6PS5Cl_md_snapshot energy=-207.0662384033203 stress="0.005460311193019152 0.0011920193210244179 0.0056124660186469555 0.0011920193210244179 0.006416157819330692 -0.006009567994624376 0.0056124660186469555 -0.006009567994624376 0.0051655094139277935" free_energy=-207.0662384033203 pbc="T T T"
Li      -6.96594432      11.21482951       4.01370513      -0.78805014       1.03668343       0.67200152      -0.00190805       0.07430951       0.38848507      -3.62790619
Li       1.28214810     -10.94455361      -1.74370228      -0.46245624       0.35046641       0.54512393       0.10840579      -0.00957092      -0.18994236      -3.47004229
Li       5.43462103      13.51565146      -2.50694565      -0.03301486       0.49719749       0.55775173       0.02868864      -0.07986692      -0.02598470      -3.52506930
Li       2.57376280       4.55256477       1.64545188       1.10397888      -0.52848470      -0.49460825      -0.02681635      -0.13376382       0.10804084      -3.46055275
Li       2.57464896       5.97686401      -0.98446838       0.90833686       0.82911277       2.20966644       0.33791357      -0.09071027       0.05367734      -3.55133194
Li       8.08062759      -1.71830957      20.18855309      -0.14509358      -0.04238974      -0.15051908      -0.02030125      -0.30573216       0.24995980      -3.44015226
Li      -3.64230479       9.95469063      13.27274577       0.48223588      -1.43772098       0.38398677       0.11167279       0.22027713      -0.20533741      -3.55573557
Li      -9.91990166      -2.57882529      13.04860641      -0.17044723       0.98853189      -0.77254556      -0.85675168      -0.45046520      -0.37397659      -3.48695914
Li       0.71174067       3.35707183      14.39173115      -0.01261845      -0.23672486      -0.53544377       0.27632320      -0.28520358      -0.28768456      -3.57571365
Li       8.40449301       7.33848106      15.71104385      -0.75404998      -0.21653804       0.18045165      -0.43036616      -0.79190117      -0.97694904      -3.42889584
Li      -2.39668749       2.66606067       5.27103311       1.25838212       0.48035596       0.34624924      -0.04877548       0.15290281      -0.69964266      -3.43450612
Li      -8.30387584      12.69456061      -0.25849515      -0.55735017       0.53439446      -0.75321611      -0.03260527      -0.18997362       0.55746269      -3.45843403
Li      13.79750955       8.09644254      15.88115949      -0.82558162       0.14508961      -0.43703548       0.06783135      -0.08125562      -0.00196910      -3.15818405
Li       9.95227914       2.17249459      -2.83201161       1.18780577       0.04253554      -0.46943216      -0.35396430       0.58395082       0.55505073      -3.41022056
Li      25.68096109       6.77064087      18.26075685       0.34509181       0.54301453      -0.97879876      -0.37341493       0.14385650       0.51092249      -3.36041553
Li      15.75339086      17.78703750      14.16927750       0.72883373      -0.75974415       1.15950381       0.57527989       0.55862182       0.19964194      -3.31083563
Li      10.78434956      16.98272888       7.64853562      -0.61114097       0.36500235      -1.02267741      -0.69483101      -0.36585501       0.12357348      -3.38847065
Li      15.23618151       3.31401111      22.02208822      -0.39783610       0.56919027      -0.10134026      -0.22330692      -0.28400999       0.53903389      -3.60244896
Li       5.69079214      16.53347618      -8.49430271       0.76356960      -1.07846627      -0.62508454       0.39151189      -0.07809547      -0.46522877      -3.46948567
Li       7.73834005       0.17680100      -2.97135545      -0.42348402       1.14554412       0.51713798       0.04713309      -1.04865634      -0.08871462      -3.35773780
Li       3.98688354       9.80592144       7.58614090      -1.16526921       0.08779588       2.03289334      -0.35131761      -0.27149951      -0.80170304      -3.48446727
Li       8.48614423       1.24707798       0.95703667       1.08366656      -0.52937565       1.37107937      -0.19853052       0.70341420       0.33816716      -3.50785851
Li      12.33458718       6.35845988      -4.93771022      -0.61868340      -0.15803543      -0.32167778      -0.68340838      -0.66554862       0.06097829      -3.32580520
Li      11.15345333      -9.52704226       2.21452296      -1.03152274      -0.37460111       1.17679003      -0.06773767      -0.02465735      -0.19961986      -3.43532314
P        4.93513226       0.04662549      -0.42047465      -2.20184544      -1.51961818      -1.13939554       0.56845903       0.40064797       2.70087719      -5.03806460
P        4.73485701       4.92794742       4.34919720      -0.24592163       2.49360169      -2.76939728      -2.79733562      -0.85687733       2.21632242      -5.70178664
P        0.45324881      -0.12131810       5.23109226      -1.37558474       0.53143475      -1.88698735      -0.25165603       1.41925097      -1.03115940      -5.42566609
P       -0.26593854       5.03613931       0.07118615       1.99342575      -2.34772631       0.47625652      -0.50266397      -0.61335695      -0.70345902      -5.46516633
S        1.00608325       4.19628315       8.77402915      -0.05695378      -1.29825627       1.90685806      -0.72876590       0.10405906       0.00157869      -4.60096285
S       11.43370458       6.34478372       0.79235188       0.29232286      -2.25917909       1.44570414      -0.39643633       0.58811438       0.52589136      -4.71920530
S        3.80653325       1.44213505       8.83877125       1.28800992      -0.32893108       0.07738478       0.07057852      -0.13323262      -0.04890587      -4.85337944
S        6.25276645       1.56273434       1.22018983       0.15017369      -3.87071107      -0.35437643      -0.59574234      -2.27204514      -1.13773263      -3.89770389
S        2.79054167       2.09433147       2.18104967       0.54054534       0.49869045       1.03686725      -0.49025625       0.89504933      -0.71074104      -4.00187433
S        1.67480108       8.86277780       4.21863023      -0.39317351       0.92065874       1.02123247       0.29599243       0.24005198      -0.56485820      -4.74208944
S        9.72280007       8.88083336       6.33571682       0.83676744       1.18898396       0.48520123      -1.28583157      -0.50294906       1.83939147      -4.69872376
S        6.35928967       4.39223230       3.50233997      -1.23457192      -1.27482566       1.53469078       1.98106909      -1.49676812      -1.95686746      -4.57698573
S        3.45289611       6.20034808       3.39005455      -0.18802241       1.25729277       0.25862630      -0.01868780       0.54879385      -0.52011001      -4.81979604
S        2.56573848       7.64476411       7.65301867      -0.34844258      -1.49701407       2.03424853       0.58943260       0.03606093      -0.24953556      -4.66566491
S        5.60764506       5.96777296       5.87807860      -3.61205784       2.15531810      -1.64031692       0.40392503       0.99454927       0.91233325      -4.35218036
S        3.37853479       3.51747019       5.32364681       0.71956736       0.78569172       0.39718734       0.88731700       0.69261092      -0.45580846      -4.06757814
S        9.18761999       0.91818379       3.74402616       2.33751279       0.00719591       0.10503923       1.02507997      -0.10865451       1.03786159      -4.37307250
S        1.45914287       1.16727319       6.51226970       1.59070232      -1.53216027      -0.18983620       0.08159842      -0.63450128      -0.72950840      -4.57813694
S        7.59097325       2.27486564       7.45080546      -0.16981608       0.88037621      -3.72422520      -0.07455839       0.86916506       0.07868680      -3.97192740
S        6.00157030       9.07396004       8.41686664      -1.07358820      -0.18265193      -0.76853836       0.45985478       0.08404255       0.45549548      -4.82069834
S        3.83663412       9.00115110       0.83495160       1.38133001       2.34825084      -1.99236034       0.83940613       0.82109416      -0.99357504      -4.08251244
S        9.71001712       3.54263802      11.77172470      -0.86501797      -1.69783717       0.05798038       0.02562775       0.77673924      -0.69469893      -4.31368443
S       -1.97201127       5.97148686      -1.00263368       0.03036419       0.02043849       0.02139879       1.33595002      -0.11806007       0.72636569      -4.13182282
S        7.76220733       7.78264010       2.76509774       2.40885094      -0.74899849       0.26962404      -0.58736289       0.20042551       0.08988950      -3.75909019
Cl      -0.33476364       0.27185301      -0.26271351      -1.40032130       1.65475726      -1.14760033       0.52936214      -0.64728999      -0.29380041      -3.72909987
Cl      -0.28574233       5.27908650       4.83973849      -2.20519056      -0.25048015      -2.03054127       0.26602471       0.56679308       0.51409054      -3.43811101
Cl       4.77896793      -0.59833785       4.88223734       1.08091540      -1.07224852       0.71920025       0.98131675       0.26315790       0.05613716      -3.69610751
Cl       4.60595889       4.93676322       0.00354027       0.85471788       2.88511341       1.30581665      -0.19242129       0.60256177      -0.43240225      -3.71845031
52
Lattice="10.279498 0.0 0.0 0.0 10.279498 0.0 0.0 0.0 10.279498" Properties=species:S:1:pos:R:3:momenta:R:3:forces:R:3:energies:R:1 spacegroup="_JSON {\"number\": 1, \"setting\": 1}" unit_cell=conventional occupancy="_JSON {\"0\": {\"Li\": 1.0}, \"1\": {\"Li\": 1.0}, \"2\": {\"Li\": 1.0}, \"3\": {\"Li\": 1.0}, \"4\": {\"Li\": 1.0}, \"5\": {\"Li\": 1.0}, \"6\": {\"Li\": 1.0}, \"7\": {\"Li\": 1.0}, \"8\": {\"Li\": 1.0}, \"9\": {\"Li\": 1.0}, \"10\": {\"Li\": 1.0}, \"11\": {\"Li\": 1.0}, \"12\": {\"Li\": 1.0}, \"13\": {\"Li\": 1.0}, \"14\": {\"Li\": 1.0}, \"15\": {\"Li\": 1.0}, \"16\": {\"Li\": 1.0}, \"17\": {\"Li\": 1.0}, \"18\": {\"Li\": 1.0}, \"19\": {\"Li\": 1.0}, \"20\": {\"Li\": 1.0}, \"21\": {\"Li\": 1.0}, \"22\": {\"Li\": 1.0}, \"23\": {\"Li\": 1.0}, \"24\": {\"P\": 1.0}, \"25\": {\"P\": 1.0}, \"26\": {\"P\": 1.0}, \"27\": {\"P\": 1.0}, \"28\": {\"S\": 1.0}, \"29\": {\"S\": 1.0}, \"30\": {\"S\": 1.0}, \"31\": {\"S\": 1.0}, \"32\": {\"S\": 1.0}, \"33\": {\"S\": 1.0}, \"34\": {\"S\": 1.0}, \"35\": {\"S\": 1.0}, \"36\": {\"S\": 1.0}, \"37\": {\"S\": 1.0}, \"38\": {\"S\": 1.0}, \"39\": {\"S\": 1.0}, \"40\": {\"S\": 1.0}, \"41\": {\"S\": 1.0}, \"42\": {\"S\": 1.0}, \"43\": {\"S\": 1.0}, \"44\": {\"S\": 1.0}, \"45\": {\"S\": 1.0}, \"46\": {\"S\": 1.0}, \"47\": {\"S\": 1.0}, \"48\": {\"Cl\": 1.0}, \"49\": {\"Cl\": 1.0}, \"50\": {\"Cl\": 1.0}, \"51\": {\"Cl\": 1.0}}" source=mace_600K frame_in_traj=100 config_type=Li6PS5Cl_md_snapshot energy=-211.00015258789062 stress="0.0065276422537863255 -0.004075716715306044 -0.0019698867108672857 -0.004075716715306044 0.004055011551827192 -0.0008501167758367956 -0.0019698867108672857 -0.0008501167758367956 0.00635710172355175" free_energy=-211.00015258789062 pbc="T T T"
Li       3.22236869       0.65183921       2.57479949       0.72459036       0.72410962      -0.20538454       0.00835681      -0.04713182       0.12120260      -3.57846512
Li      -0.63498667       2.08407126       9.60973385      -0.13630579      -0.55315638       0.06838394      -0.31225920       0.45588225      -0.59690249      -3.60311075
Li       1.82272711       5.28131129       3.08501355       1.04101327      -0.60056872      -1.23644881       0.39272934      -0.14216349       0.02134279      -3.45563678
Li       1.75895993       3.25298464       5.19503970       0.20857370       0.46481694       0.19808475       0.17662942      -0.18824008      -0.07957172      -3.49593192
Li       0.70026258       2.79001418       2.12496148      -0.23737361       1.57749678       0.14861986       0.11618742      -0.28938681       0.21560842      -3.33027856
Li       4.81196417       3.39605147       1.53704318      -0.82741102       0.43092514      -0.81811965      -0.22677591      -0.55097473       0.62726152      -3.63667868
Li       3.06975545       8.56494077       5.42777807      -1.28541683      -0.40836419       0.16627251       0.23884650      -0.27454293      -0.17273867      -3.51996416
Li       5.51280053       7.21056982      12.16452769      -0.30745036       0.49600196       0.65555454      -0.25884175       0.22522707      -0.12235393      -3.52713682
Li       2.99012623      10.36428408       7.65130856      -0.74338870       0.50553003       0.40421112      -0.54255921      -0.36528033      -0.92768568      -3.21989530
Li       1.90245268       5.81545156       6.86207952       0.68191173       0.54891396       0.36590326      -0.01802467      -0.62335944      -0.24588789      -3.39056222
Li       2.77291004       5.96222702       9.54401263      -0.99601245       0.89538369       0.40142302       0.18823680       0.19407207       0.07714351      -3.60302438
Li       5.05769021       8.32208379       7.47257298       0.03209542       0.38952948      -0.32983421      -0.25039506      -0.43417633      -0.40827656      -3.56412332
Li       5.49850028       1.45407265       6.98286686      -0.26097697       0.35158364       1.42606349       0.45734242       0.55072320       0.25683236      -3.53553855
Li       6.66244813       4.78854456       8.51434685      -0.51744905       0.36010506      -0.10300115      -0.27747151      -0.50618637      -0.13113102      -3.72971089
Li      10.50306564      -2.21868745       6.18368253      -0.53050197       0.13401407      -0.39303107       0.76024854      -0.48804435      -0.14552583      -3.33046927
Li       7.69921800       2.15958358       5.11651482      -0.14112721      -0.87035498       0.21009070      -0.14251782       0.31259060       0.37389934      -3.54173665
Li       8.97267499       4.70425606       6.76376637       0.26760398      -0.56633140       0.49438877      -0.31378734      -0.28414676       0.21150216      -3.61055134
Li       7.95829854      -0.00281534       8.00191744      -0.77233080       0.13296982       0.49568446      -0.22062238       0.71502852       0.95510852      -3.46384804
Li       7.02189146       8.62201911       4.56058694       0.33460273       0.22700230      -0.55969650      -0.14782572      -0.05164982       0.29477528      -3.52729772
Li       9.99205633       7.24038863       3.01202131       0.36277798       0.33189914       0.00150850      -0.19772610       0.37936556       0.16818716      -3.50364123
Li       7.47019875       5.25076174       2.02671427      -0.68254139       0.20124049       0.34013464       0.03305206       0.08342808       0.11618142      -3.38228404
Li      11.67504135       9.10507366      -0.95640585       0.17350876      -0.97572574       0.61690647       0.06712399      -0.43416977       0.45702666      -3.40864863
Li       8.48877416       8.10485463      -0.01051608      -0.71566985       1.15705051      -0.45167019      -0.20290171      -0.23547314       0.34196967      -3.62880264
Li       8.25613465      10.12416291       1.90273678       0.12029794       0.75863906       0.80501607       0.07026020       0.96794194      -0.24490607      -3.58479203
P        4.88225861      -0.27718255       0.09586606       1.63730794      -1.22998537       0.70811077       0.30126250      -0.53764302       0.21070206      -5.77384984
P        5.32235181       5.02306247       5.28071039      -0.39964658       0.22514912      -0.26733298      -0.26932937      -0.90262663      -1.36178935      -5.85372138
P       -0.30693564       0.38795075       4.93488205      -0.64360914       0.30312232      -2.90468516       2.17716885      -0.82928646       1.02946091      -5.23213553
P       -0.22154487       5.24477524      -0.26877711      -1.24687523      -0.94326865      -1.36836061       0.11141721      -0.57830656      -0.65198213      -5.92888188
S        1.11475187       4.18820195       8.78670682       3.09638701       1.09395518       1.32079040      -0.07170224       0.47376555       0.21587121      -4.45151156
S        9.30754041       3.88525778       1.06356670       0.54746802      -2.34196662       0.87259255      -0.52837282      -0.21762919       0.07074493      -4.66782403
S        4.30897493       1.12736459       8.99876696      -1.48555054      -3.04490309      -0.71260119      -0.05187526       0.55695301       0.79125082      -4.53398748
S        5.81475481       0.60586029       1.70847460      -1.79340696       1.59895496       0.28079283      -0.61429954       0.21694538      -0.39776990      -4.42903858
S        2.79772882       3.04952418       3.03899454       1.16548320      -1.33043208       0.80000779      -0.22476974      -0.07971711      -0.34951299      -4.12762398
S        1.31333980       9.17239021       3.99833567      -0.89282540       1.60507362       1.28186654      -1.11423874       0.67611158       0.44248101      -4.29841536
S        8.77597830       9.50319236       6.14779350       1.64410729      -3.45892011       0.45641563      -0.54888666      -0.53744853      -0.85931349      -4.82242157
S        3.93438104       6.25598494       4.23076315      -0.72478513      -1.65625781       0.12522002       0.46772611       0.01896000       0.20986684      -4.42054287
S        6.66907567       6.04803684       6.32050926       0.21091309      -1.92710886      -0.05455016       0.49894431       1.18806386       0.35064906      -4.53927213
S        2.64123380       7.77380589       7.61104226      -0.81364449       2.32941652       0.09823919      -0.46474096       0.74032390       0.16911325      -4.65365261
S        6.47992318       3.84157300       3.84758644       0.41579230       0.25843615       2.26772535      -0.39195397       0.57071805       0.02193078      -4.35146636
S        4.52780089       3.67041778       6.54643196       1.19584462      -1.08472700      -0.17425977      -0.89027143       0.21712279       0.09828237      -4.35401255
S        9.31218357       1.51731196       3.45945352       2.66969347      -0.74610975      -2.73779720      -0.36571297       0.42196327      -0.66427410      -4.94745582
S        0.67235118       1.41377118       6.50041422      -1.17178871       0.03892086      -0.00675224       0.41113824      -0.23959298      -0.60287148      -4.38136452
S        7.82342621       2.55537022       7.67622084      -1.97301700      -1.28552322      -0.11358145      -0.05659150      -0.35992017      -0.18862863      -3.77959496
S        6.22610515       8.78451025       9.30981451       1.62921385      -0.93974536      -1.28550299       0.31436294       0.19652948       0.31786278      -4.50289492
S        3.37627700       8.69821145       0.77447389      -2.28831842       1.39463130       0.12126434       0.43076313       0.74720144      -0.00313331      -4.44450349
S        8.60953153       6.07804481       8.82884124       1.52370916       0.20409228       1.81512290       0.30740780       0.31946492      -0.04962358      -4.52867639
S        0.58075137       6.70363144       0.83884078       1.75278242       1.80661729       0.12759316       0.90100479       0.47940361       0.25132677      -4.61463456
S        7.79488102       8.13705690       2.42527793       0.79970027       1.00576949      -0.74558346      -0.33454514      -2.00996494       0.18561924      -4.26587999
Cl      -0.72793266      -0.16312063      -0.14271772      -0.25106690      -0.63902900      -0.43736403       0.24136212       0.07869411      -0.31939304      -3.75578511
Cl       0.18386107       5.48330525       5.00521857      -2.25297009      -0.51410020      -1.51736280       0.30004114       0.21345416       0.14054444      -3.81727231
Cl       5.03618502      -0.36381144       5.69882285       1.49303390       1.45108028      -1.93656092      -0.11945455      -0.25055525      -0.19840506      -3.74654889
Cl       5.06604429       5.13140651       0.15292502       0.36304734       2.11414816       1.28549354       0.18684125       0.45768312      -0.02207089      -3.60491157
52
Lattice="10.279498 0.0 0.0 0.0 10.279498 0.0 0.0 0.0 10.279498" Properties=species:S:1:pos:R:3:momenta:R:3:forces:R:3:energies:R:1 spacegroup="_JSON {\"number\": 1, \"setting\": 1}" unit_cell=conventional occupancy="_JSON {\"0\": {\"Li\": 1.0}, \"1\": {\"Li\": 1.0}, \"2\": {\"Li\": 1.0}, \"3\": {\"Li\": 1.0}, \"4\": {\"Li\": 1.0}, \"5\": {\"Li\": 1.0}, \"6\": {\"Li\": 1.0}, \"7\": {\"Li\": 1.0}, \"8\": {\"Li\": 1.0}, \"9\": {\"Li\": 1.0}, \"10\": {\"Li\": 1.0}, \"11\": {\"Li\": 1.0}, \"12\": {\"Li\": 1.0}, \"13\": {\"Li\": 1.0}, \"14\": {\"Li\": 1.0}, \"15\": {\"Li\": 1.0}, \"16\": {\"Li\": 1.0}, \"17\": {\"Li\": 1.0}, \"18\": {\"Li\": 1.0}, \"19\": {\"Li\": 1.0}, \"20\": {\"Li\": 1.0}, \"21\": {\"Li\": 1.0}, \"22\": {\"Li\": 1.0}, \"23\": {\"Li\": 1.0}, \"24\": {\"P\": 1.0}, \"25\": {\"P\": 1.0}, \"26\": {\"P\": 1.0}, \"27\": {\"P\": 1.0}, \"28\": {\"S\": 1.0}, \"29\": {\"S\": 1.0}, \"30\": {\"S\": 1.0}, \"31\": {\"S\": 1.0}, \"32\": {\"S\": 1.0}, \"33\": {\"S\": 1.0}, \"34\": {\"S\": 1.0}, \"35\": {\"S\": 1.0}, \"36\": {\"S\": 1.0}, \"37\": {\"S\": 1.0}, \"38\": {\"S\": 1.0}, \"39\": {\"S\": 1.0}, \"40\": {\"S\": 1.0}, \"41\": {\"S\": 1.0}, \"42\": {\"S\": 1.0}, \"43\": {\"S\": 1.0}, \"44\": {\"S\": 1.0}, \"45\": {\"S\": 1.0}, \"46\": {\"S\": 1.0}, \"47\": {\"S\": 1.0}, \"48\": {\"Cl\": 1.0}, \"49\": {\"Cl\": 1.0}, \"50\": {\"Cl\": 1.0}, \"51\": {\"Cl\": 1.0}}" source=mace_600K frame_in_traj=200 config_type=Li6PS5Cl_md_snapshot energy=-211.57366943359375 stress="0.005528728477656841 0.0012499481672421098 0.00233066501095891 0.0012499481672421098 0.0035383300855755806 0.002532203448936343 0.00233066501095891 0.002532203448936343 0.006151728332042694" free_energy=-211.57366943359375 pbc="T T T"
Li       2.97696013       0.73653386       3.31336271      -0.19363350       1.27844036       0.55342044       0.14524975      -0.43025714       0.13204172      -3.36809710
Li      -2.18637236       1.76560002       9.74249928      -1.57522805       0.16290631      -0.16513603       0.41500586       0.14121765      -0.09049203      -3.64734276
Li       2.55031766       4.91231364       1.82075497       1.68178270       0.21995189      -0.21776891       0.43435603       0.20117827       0.00516203      -3.60795917
Li       2.11850725       3.35111917       5.27044626       0.36052756       0.79557547       0.10888593       0.14752688      -0.23271585      -0.57477278      -3.59502669
Li       0.28865594       1.72764881       2.27363147      -0.08902527      -0.70479184       0.14815920       0.39704537       0.30365992      -0.59465569      -3.51594304
Li       4.57496533       2.80108507       1.32309040      -0.21193614       0.13469599       0.07063047       0.23282805       0.05975339      -0.01907769      -3.68779512
Li       0.51457449       7.92785668       9.36981561      -0.75786338       1.04970135      -0.47500754       0.74794447       1.14462566      -0.32710433      -3.47099368
Li       7.05036654       5.47883525      12.34194952      -0.66498195       0.47181351      -1.15096776      -0.26940545      -0.18459898       0.20740548      -3.56504412
Li       1.13944739       5.50954650       7.21215578      -1.07202640       0.21672386      -0.13044407       0.21260995       0.10939913       0.11420958      -3.46120299
Li       2.74663506      10.13337082       8.24532773      -0.42934483      -0.36478963       1.01810312      -0.21883088      -0.24031174      -0.21578828      -3.44909722
Li       3.49920768       7.15507246      10.01234720      -0.39587791       0.84139239       0.01321713       0.06414799      -0.23250578       0.01904178      -3.57662021
Li       4.61688393       8.22318925       6.74589542       0.09879499      -0.24577624       0.67166292       0.52498966      -0.15770875      -0.16115479      -3.57711206
Li       7.19352984       0.33340289       7.19084622      -0.32037833       1.22213583      -0.02942855       0.30975267      -1.28567719      -0.40401441      -3.43102338
Li       1.89084322       1.94193986      10.24283918      -0.39737041       0.29597001       0.08020961       0.14104667       0.33858079       0.29992446      -3.57471485
Li      12.05458882      -2.62507566       5.53177100       0.51836884       0.07007687       0.30721616       0.30167928       0.08502800       0.05999039      -3.42974781
Li       7.36493754       2.57688402       5.23499983       0.52199195      -0.00708125       0.61570498       0.71315801      -0.27582303      -0.32951075      -3.44288625
Li       7.79380794       4.75903236       8.20485103      -0.62152646       0.48695934       0.49133392      -0.49973315      -0.41320315      -0.22124887      -3.50264363
Li      10.02557552       2.91369647       6.86433231      -0.52612490      -0.53093950       0.56590813      -0.08281187      -0.16884640       0.07036910      -3.56953017
Li       5.95513435       8.91248995       3.29799242       0.63569520       0.80177625      -0.18746028      -0.72885638       0.31052426      -0.31831571      -3.46317491
Li       7.64154883       7.80972805       4.92119770      -0.28387440       0.64003661       0.20580684       0.35606742       0.03282775      -0.19669911      -3.41147191
Li       5.49972941       2.06537051      -3.45376847       0.42162488       0.08283827       0.04628063      -0.66837859       0.33258197       0.24225992      -3.50330366
Li       9.84211139       7.04878607       2.75928321      -0.16950538      -0.48235145       0.62476519       0.36717814      -0.00408217       0.22115891      -3.29230283
Li       6.94002327       7.57397353       0.28040153       0.18446905      -0.79898114      -0.49434685      -0.09237334      -0.18445098      -0.23746783      -3.35898605
Li       8.80267960       9.88815666       2.15307875       1.05028891      -0.17424156      -0.65923459      -0.07515351       0.06314415      -0.51105386      -3.44241549
P        5.30971452      -0.01749359      -0.17477108       0.08497550      -1.54121498      -1.46102860       0.03305008       0.50430530       1.20912635      -5.47909820
P        4.94792790       5.40113265       5.10216061      -1.27949258      -0.23865527       0.20436844       0.39852318      -0.57915467       0.55720794      -5.82166648
P        0.09475288       0.13108350       5.14829313       2.59029861      -0.50194076      -0.20333677      -0.59841144      -0.03170789      -0.06776844      -5.39843655
P       -0.22592786       5.47988847      -0.21203285      -0.10324456      -0.10761972       1.08527202       0.48902479      -2.00771928       0.68726850      -5.63093495
S        0.85097445       3.97506194       9.06093924       0.11206408       0.93674531      -1.06107253       0.37865394       0.23299928      -0.21257238      -4.35947216
S        8.68543136       4.19570496       0.65329669       2.91637885      -0.36283909      -0.90808503      -0.12518424       0.43051246       0.27305505      -4.40411744
S        4.17042911       1.57571357       9.29321923       1.17214434      -0.22626940       1.40668688       0.31088081      -0.66466689      -0.11538434      -4.76681386
S        6.71435424       0.95096645       1.15928521       0.40663116       0.28904641       1.26334017      -1.00570595      -0.31042990      -0.33051470      -4.43120533
S        2.44984102       2.71986686       2.34525139      -1.21603132      -1.79104697      -0.20843558      -0.17624006      -0.30216673      -0.00651324      -4.36204633
S        1.13938737       9.27367744       3.79354898      -1.42489657       2.34363154       0.65957394       0.01088841      -0.10133978      -0.12999439      -4.77578552
S        9.22017257       9.08180099       6.29728349      -1.35449724      -0.32736283       1.21059840       0.43214217       0.61747515      -0.37188655      -4.48488492
S        3.82171156       6.75255783       4.08136216       0.09712719       1.93204647       0.61482749      -0.03297658      -0.16419777       0.10524687      -4.51880313
S        6.43194555       6.36061132       6.21632792      -2.45045914       1.11655343      -0.02923869      -0.26516700       0.16120976       0.50515193      -4.47455473
S        2.69069764       7.63557422       7.82123041      -0.47807083      -1.47061445      -1.51312907      -0.82758421       0.25008288       0.09166477      -4.37982166
S        6.15160499       4.05316024       4.10404749       0.38017035      -0.36471509      -0.98644325      -0.31265461       0.39123064      -1.11420488      -4.35964870
S        4.01628873       4.04453554       6.42479037       0.86049612      -1.68666377       0.92327213      -0.16292228       0.49412560      -0.07559142      -4.40274519
S        8.98830215       1.21764045       3.73548997       0.26273797       0.80855562      -0.07962253       0.17583427      -0.20710757       1.58501542      -4.51699939
S        1.57081238       1.16059574       6.30870988       0.13860139      -0.42584155       1.69581833      -0.72238111      -0.21301562      -0.37311989      -4.64454021
S        7.72679361       2.37612297       7.47169343      -1.56486770      -1.03647242      -1.02899473       0.22828710       1.06914997       0.26681390      -4.58333222
S        6.43854268       9.11780074       8.85982872       3.27720072      -0.45848064      -0.88921557      -0.35461667       0.02435614      -0.04612118      -4.79520936
S        4.09782189       9.08933912       1.10120191      -2.19691850      -1.70992290       0.84793542       0.52597237       0.53877187      -0.25500196      -4.51379085
S        9.23706261       6.54741573       8.61761658       0.97948869       0.40077149      -1.60869455      -0.94322711       0.80443370      -0.89041740      -4.74247475
S        1.06728338       6.63855385       0.96954768      -0.02520824       1.21341824      -0.73396701      -0.05178414      -0.16797343       0.11469352      -4.86275299
S        7.77215039       7.85497586       2.37738271       0.40925917      -0.44224501       1.14061839      -0.11874352      -0.61177230       0.61443639      -4.73473786
Cl       0.08460260       0.54449448      -0.13028498      -1.12330257      -2.05182372      -1.07724932      -0.20766380      -0.40326777       0.40949059      -3.55618459
Cl       0.18960129       4.46706591       5.07764352       0.70100542      -1.68194731       0.23709873      -0.02417518       0.47190940       0.52411026      -3.53961301
Cl       5.34951028      -0.05581767       5.49310339       0.99430915       0.73038650      -1.09182927       0.12652279       0.04791885      -0.08864364      -3.65407896
Cl       4.88082249       5.08421457       0.65119686       0.06925404       1.19247794      -0.42057693      -0.05538503       0.41369811      -0.03575482      -3.43533790
52
Lattice="10.279498 0.0 0.0 0.0 10.279498 0.0 0.0 0.0 10.279498" Properties=species:S:1:pos:R:3:momenta:R:3:forces:R:3:energies:R:1 spacegroup="_JSON {\"number\": 1, \"setting\": 1}" unit_cell=conventional occupancy="_JSON {\"0\": {\"Li\": 1.0}, \"1\": {\"Li\": 1.0}, \"2\": {\"Li\": 1.0}, \"3\": {\"Li\": 1.0}, \"4\": {\"Li\": 1.0}, \"5\": {\"Li\": 1.0}, \"6\": {\"Li\": 1.0}, \"7\": {\"Li\": 1.0}, \"8\": {\"Li\": 1.0}, \"9\": {\"Li\": 1.0}, \"10\": {\"Li\": 1.0}, \"11\": {\"Li\": 1.0}, \"12\": {\"Li\": 1.0}, \"13\": {\"Li\": 1.0}, \"14\": {\"Li\": 1.0}, \"15\": {\"Li\": 1.0}, \"16\": {\"Li\": 1.0}, \"17\": {\"Li\": 1.0}, \"18\": {\"Li\": 1.0}, \"19\": {\"Li\": 1.0}, \"20\": {\"Li\": 1.0}, \"21\": {\"Li\": 1.0}, \"22\": {\"Li\": 1.0}, \"23\": {\"Li\": 1.0}, \"24\": {\"P\": 1.0}, \"25\": {\"P\": 1.0}, \"26\": {\"P\": 1.0}, \"27\": {\"P\": 1.0}, \"28\": {\"S\": 1.0}, \"29\": {\"S\": 1.0}, \"30\": {\"S\": 1.0}, \"31\": {\"S\": 1.0}, \"32\": {\"S\": 1.0}, \"33\": {\"S\": 1.0}, \"34\": {\"S\": 1.0}, \"35\": {\"S\": 1.0}, \"36\": {\"S\": 1.0}, \"37\": {\"S\": 1.0}, \"38\": {\"S\": 1.0}, \"39\": {\"S\": 1.0}, \"40\": {\"S\": 1.0}, \"41\": {\"S\": 1.0}, \"42\": {\"S\": 1.0}, \"43\": {\"S\": 1.0}, \"44\": {\"S\": 1.0}, \"45\": {\"S\": 1.0}, \"46\": {\"S\": 1.0}, \"47\": {\"S\": 1.0}, \"48\": {\"Cl\": 1.0}, \"49\": {\"Cl\": 1.0}, \"50\": {\"Cl\": 1.0}, \"51\": {\"Cl\": 1.0}}" source=mace_600K frame_in_traj=300 config_type=Li6PS5Cl_md_snapshot energy=-211.99024963378906 stress="0.0075502097606658936 -0.0028034099377691746 -0.0014431210001930594 -0.0028034099377691746 0.003449041862040758 0.00149441824760288 -0.0014431210001930594 0.00149441824760288 0.005066187120974064" free_energy=-211.99024963378906 pbc="T T T"
Li       2.55469054       0.15951571       2.78001369       0.80547968      -0.44834245      -0.60809866       0.04747974      -0.16526902       0.18164909      -3.46186656
Li      -2.41548018       1.80450398      10.14800708      -0.52408428      -1.28899118      -0.15594184       0.21901698       0.26949787      -0.31090412      -3.65502296
Li       3.50168338       4.21922068       2.17894869       1.02929189       0.47982167      -0.47499735       0.26635262       1.34041560      -0.43447283      -3.37062435
Li       1.32438866       3.57815937       5.16108165      -0.48379923      -0.11422245      -0.15889536       0.76445037      -0.98971772      -0.22667284      -3.40943984
Li       0.30992047       2.90213411       2.32826309       0.53416163      -0.32920556       0.39509556      -0.07336515      -0.31371558       0.05788645      -3.46111695
Li       5.23404251       1.93668757       3.34626240      -0.56452961      -0.07176074      -0.05570273      -0.53248173       0.11192009       0.37529665      -3.40803430
Li       0.49703414       7.57263965       6.45869415       0.80383033      -0.27933009      -0.39199795      -0.49826282       0.33944240      -0.25077045      -3.59914894
Li       9.98743849       7.27075788      12.96473128       0.23121661      -0.05979683      -0.32978120       0.12262818      -0.06843928      -0.05929747      -3.49413988
Li       1.86327256       5.49959018       7.30120135      -0.05751470       0.32562673      -1.07251468       0.26169401      -0.07025634       0.16270557      -3.58128460
Li       3.26273479      10.31656630       7.10118184      -0.89461823       0.18343106       0.25961825      -0.05274504      -0.28867114      -0.03925670      -3.69505014
Li       1.17058566       8.09067563       9.54031262       0.44497940       0.95832038       0.23380962       0.17745063      -0.14103590      -0.02979748      -3.42436357
Li       4.62110525       7.55321755       8.45708732       0.48829675       0.44726131       0.40092535       0.08500281      -0.28546464       0.01662438      -3.65801577
Li       7.27777302       1.94466120       5.78436014       0.57968197       0.72768363      -0.08276657       0.18302549      -0.30482286       0.19593515      -3.50333291
Li       2.39205095       1.42765583      10.72211787      -0.16328381       0.01050221      -0.57743314      -0.01823217       0.29415512      -0.24670058      -3.48605652
Li      13.72464336      -1.86633880       5.00831651      -0.00642603      -0.61976770       0.84000495      -0.48225376      -0.71224958       0.26583523      -3.51624893
Li       8.50523021       4.82518285       6.59696361      -0.76058241       0.38611019       0.80106885      -0.07289024      -0.02983501      -0.06245345      -3.55826283
Li       7.52115668       4.89405052       8.98681629      -0.23700611      -0.02838850      -1.11027967      -0.68504190      -0.38158989       0.42913592      -3.49808665
Li       9.65954669       1.21461707       7.99711775      -0.61422570       0.22378517      -0.36224616       0.01620387       0.07970114       0.04547172      -3.67916678
Li       6.73494247       5.31414568       1.78635535       0.28362249      -0.93496768       0.57234711       0.03857571       0.30762464       0.11672292      -3.53310849
Li       7.01315463       8.09378516       4.67763666       0.55761420      -0.42642314       0.09351750       0.15997750       0.36559528      -0.05575272      -3.51532966
Li       5.04386391       3.44893484      -2.20425971       0.70355904      -0.72998026      -1.02085599       0.59765291       0.08018513       0.51343656      -3.61858572
Li       7.80662999      10.04190143       2.10973045      -0.34324211       0.29576980       0.42058860       0.34340754       0.34326434       0.05652004      -3.41319918
Li       8.23280133       8.53208224      -0.11994274      -0.21215297       0.95998165       0.18331461       0.16255465      -0.22713307       0.13450803      -3.52016769
Li       5.35162030       8.13270068       2.17929507      -0.22054420      -0.31194790      -1.37987132      -0.00556156      -0.15850697      -0.04921351      -3.42905340
P        5.09669881       0.06229998      -0.08018177      -1.42652441       1.39904326       0.40307525      -0.41649646       0.81827539      -0.93577719      -5.39580810
P        5.27219813       5.08279933       5.20458751      -0.10489713      -0.84490308      -0.48086844       0.90601885       0.91134822      -0.44796640      -6.12927234
P       -0.01702455       0.09353116       5.10767924      -0.39942118      -1.61936690       2.30294726       0.47749031      -1.10064793       0.46178561      -5.75382030
P        0.24597908       4.95059901      -0.22533544       1.20723177       1.47188621      -1.70445175      -0.82912314       0.43734112       0.09912562      -5.55719459
S        1.18028890       3.52264652       9.00584977       0.22409469      -3.19117859       2.86495043      -0.01206591       0.12824236      -0.09468609      -4.48949338
S        9.01318650       4.15289931       1.04188897      -0.02124795      -2.02392068      -2.24652892       0.14819881       0.07981683      -0.09747367      -4.59327666
S        4.02246550       1.48230126       8.79811786       0.80748726      -1.30468387       0.40079052       0.30664781      -0.97446179       1.17920470      -4.36585146
S        6.11322454       1.24556385       1.32793402       2.76237925       0.63219752       3.13254388      -0.06536222      -0.22968479      -0.23479965      -4.79936408
S        2.58532073       2.38340868       2.72845327      -1.19463035      -0.34832536      -0.68693906      -0.24227127      -0.47075889       0.18427075      -4.39979270
S        1.19170190       8.94174048       3.93929299      -1.49073829      -0.48742634       0.67823065      -0.37767008      -0.08701089       0.52626187      -4.54384892
S        8.89882762       9.55367591       6.45032799      -1.88402416       1.81361080      -1.28906001       0.39247507      -0.13561994      -0.48096070      -4.47620881
S        4.56793093       6.12797166       3.61130881       1.06319836       0.15728860      -0.80586047      -0.84415901       0.33992514      -0.90445304      -4.43119004
S        6.27513115       6.55982074       6.21271766      -1.83703626       1.74837615      -1.56563772       0.26560014      -0.26926586       0.95453876      -4.36342460
S        2.44237066       7.82534269       7.52473885      -1.34043919      -0.26917170      -2.66586535       0.44967198       0.25707638      -0.00282998      -4.29771793
S        6.66956873       3.83026035       4.41321843       2.57502395       0.88049846       0.16780208       0.40904060      -0.58846200      -0.58699876      -4.52579686
S        3.90199567       4.14538100       6.24540136      -1.22401460      -1.80293561       0.34909486      -1.38973880      -0.59272879       0.40162674      -4.56751454
S        9.21259737       0.98709045       3.70056817       1.11697854      -1.23350120       3.11797436      -0.69173634       1.15369272      -0.61228544      -4.52411450
S        1.27218970       1.24897186       6.17497894      -0.35568504       1.93733916      -0.72038071      -0.12621492       0.28682360       0.11548886      -4.61501043
S        7.84654043       2.79322978       7.91464567       0.59331382       1.12188243      -0.60447603      -0.30468607       0.27335614      -0.16097182      -4.19813794
S        6.37324692       9.34215381       8.96989213       0.26160660      -0.61145580       1.31062114      -0.52111477       0.07551323       0.33342510      -4.62031423
S        3.54757169       9.34409284       0.86117713      -1.81587013      -0.74948315       1.40660834       0.24521428      -0.07532097      -0.06311192      -4.81935851
S        9.20853649       6.33483095       8.83705176       2.47980423       3.14043858      -0.49164398       1.11837256       0.18241037       0.23550028      -4.60853147
S        1.62729747       6.01147110       0.83093681      -0.71753838       0.77273901      -0.73065931      -0.48936081       0.13401470       0.16414379      -4.52759174
S        7.68108284       7.82475688       2.33105049      -0.13886939      -1.31271283      -0.49493119      -0.04124346      -0.41401035      -0.18330659      -4.51423185
Cl      -0.57066396       0.32413027       0.15744359       0.21812121       0.73434043       0.51541406       0.00823800      -0.36713704      -0.20736465      -3.63883674
Cl       0.30369077       5.43462544       5.44251941       0.94219578       0.75191750       0.90820521      -0.45156476       0.42942652       0.03436584      -3.72937894
Cl       4.86056642      -0.26484689       5.33964364      -0.67373297       0.99096125      -0.30326974       0.48096040       0.50108302      -0.41965055      -3.56014377
Cl       5.10778441       5.35723780      -0.30559560      -1.00649189      -1.10862358       0.81340541       0.57024026      -0.09833133      -0.04353679      -3.45616478
52
Lattice="10.279498 0.0 0.0 0.0 10.279498 0.0 0.0 0.0 10.279498" Properties=species:S:1:pos:R:3:momenta:R:3:forces:R:3:energies:R:1 spacegroup="_JSON {\"number\": 1, \"setting\": 1}" unit_cell=conventional occupancy="_JSON {\"0\": {\"Li\": 1.0}, \"1\": {\"Li\": 1.0}, \"2\": {\"Li\": 1.0}, \"3\": {\"Li\": 1.0}, \"4\": {\"Li\": 1.0}, \"5\": {\"Li\": 1.0}, \"6\": {\"Li\": 1.0}, \"7\": {\"Li\": 1.0}, \"8\": {\"Li\": 1.0}, \"9\": {\"Li\": 1.0}, \"10\": {\"Li\": 1.0}, \"11\": {\"Li\": 1.0}, \"12\": {\"Li\": 1.0}, \"13\": {\"Li\": 1.0}, \"14\": {\"Li\": 1.0}, \"15\": {\"Li\": 1.0}, \"16\": {\"Li\": 1.0}, \"17\": {\"Li\": 1.0}, \"18\": {\"Li\": 1.0}, \"19\": {\"Li\": 1.0}, \"20\": {\"Li\": 1.0}, \"21\": {\"Li\": 1.0}, \"22\": {\"Li\": 1.0}, \"23\": {\"Li\": 1.0}, \"24\": {\"P\": 1.0}, \"25\": {\"P\": 1.0}, \"26\": {\"P\": 1.0}, \"27\": {\"P\": 1.0}, \"28\": {\"S\": 1.0}, \"29\": {\"S\": 1.0}, \"30\": {\"S\": 1.0}, \"31\": {\"S\": 1.0}, \"32\": {\"S\": 1.0}, \"33\": {\"S\": 1.0}, \"34\": {\"S\": 1.0}, \"35\": {\"S\": 1.0}, \"36\": {\"S\": 1.0}, \"37\": {\"S\": 1.0}, \"38\": {\"S\": 1.0}, \"39\": {\"S\": 1.0}, \"40\": {\"S\": 1.0}, \"41\": {\"S\": 1.0}, \"42\": {\"S\": 1.0}, \"43\": {\"S\": 1.0}, \"44\": {\"S\": 1.0}, \"45\": {\"S\": 1.0}, \"46\": {\"S\": 1.0}, \"47\": {\"S\": 1.0}, \"48\": {\"Cl\": 1.0}, \"49\": {\"Cl\": 1.0}, \"50\": {\"Cl\": 1.0}, \"51\": {\"Cl\": 1.0}}" source=mace_600K frame_in_traj=400 config_type=Li6PS5Cl_md_snapshot energy=-211.22833251953125 stress="0.0009956781286746264 0.004787534009665251 -0.0017707067308947444 0.004787534009665251 0.00010437595483381301 0.004919655155390501 -0.0017707067308947444 0.004919655155390501 0.0006122721242718399" free_energy=-211.22833251953125 pbc="T T T"
Li       2.96602903       0.74207001       4.04730249      -1.59991225      -1.35511533       0.45649714      -0.09475005       0.23996249      -0.18915507      -3.56109764
Li      -2.54610382       3.89082436       9.52426963       1.02076771      -0.03027977      -0.32276064      -0.20700973      -0.04134458       0.27275455      -3.61127023
Li       2.12398564       4.57987854       3.90226686       0.18819982      -0.03912067       0.59182552       0.25297946       0.21674377       0.00664218      -3.64870714
Li       0.69676808       2.24398502       2.96736937       0.21891260      -0.60009686       1.10722067      -1.24204636       0.07561050       0.05438967      -3.31274915
Li       2.15882768       0.81513347       0.83594442      -1.97976475       0.05149097       0.47540065       0.29587948       0.27851409      -0.01508541      -3.53628317
Li       5.38039017       2.24058465       2.73307534       0.68441603      -0.72076331       0.07291475      -0.48004299       0.47638333       0.16740493      -3.52600656
Li       1.35544009       9.86836026       7.78935308       1.13662244       0.57350010       0.20591601       0.36992532      -0.10862882      -0.13504067      -3.48191579
Li       9.01034556       9.91358329      12.44661291       0.17626122       0.30739550       0.33344287      -0.07117318      -0.28625262      -0.26183128      -3.43202082
Li       0.45636549       7.83747779       9.40563080      -1.07135863       0.18582758      -0.12363436       0.56120449      -0.38120618      -0.20347041      -3.49585477
Li       4.47365298       8.25358311       6.31900404      -0.57907717      -0.31730867      -0.02391630      -0.32541952       0.04188795      -0.01137830      -3.47856320
Li       4.15206182       7.56654818      10.06205840      -0.05902027      -0.16403737      -0.65093137      -0.04948163      -0.15234621      -0.16954502      -3.45899434
Li       2.48864323       5.28414569       7.54969313       0.10595976       1.33730509       0.20395849       0.02772839       0.30971855      -0.53280848      -3.48955567
Li       6.77349663       2.44394958       5.56963203      -0.17835423       0.53921548      -0.31090217      -0.06659994       0.00958681      -1.34986663      -3.42365578
Li       2.98093077       4.48184496      10.47590341       0.43050985       0.13553007       0.57265833       0.27980059      -0.43509787       0.48172709      -3.48431312
Li      11.03833230      -2.49083507       5.76508393       0.05096962       0.00734707       0.20895058       0.08638310      -0.32231593      -0.30513188      -3.68817927
Li       8.97727316       0.59002362       8.01446119       0.73172256      -0.34285385       0.02614896       0.22752580      -0.19283195       0.24906768      -3.48492520
Li       9.47915470       3.40035756       7.19059106       0.68350414      -0.15727754       0.52938745       0.24073204       0.08203378      -0.16235560      -3.40437583
Li       5.52513221       0.88416977       7.45235103       0.00280255      -0.02254334       0.48309695       0.27619031      -0.26833293      -0.11105787      -3.52094622
Li       9.17633452       6.09639314       2.84333439       0.48840006      -0.57604184      -0.40960183       0.46792018      -0.73287171       0.23189944      -3.63281716
Li       7.76028878       8.09217127       5.00565009       0.10450529       0.88358172      -1.17032761      -0.50453860      -0.75286877      -0.58473945      -3.42187946
Li       5.46899425       3.80982274      -2.67713229      -0.42868334       1.03069418       0.51007058       0.30232161       0.07831088       0.53134614      -3.35297512
Li       6.38753091       9.80228837       3.08520213      -0.21534994      -0.29700000      -0.13477035      -0.13251141      -0.22644940      -0.08927063      -3.47638249
Li       7.69526573       7.78593579       0.12485883       0.81124576       0.35689611      -0.02514964      -0.08617237      -0.23737502       0.16713411      -3.50548846
Li       5.70805920       5.73490508       2.46295894      -0.32343495      -0.10148827       0.47379764       0.48780429       0.56493741      -1.21133053      -3.62819315
P        5.18904135       0.04122210       0.13770905      -0.81089400       0.35449267      -0.02806893       2.57603741      -0.66007596       1.55649865      -5.87795722
P        5.03748898       5.24390624       5.11132769       0.13935506       0.30001647       0.58843974       1.05256569      -0.78444064      -0.90563619      -5.50374615
P       -0.22118400       0.11584772       5.05882205       0.55963998       0.31954666       3.05752865       0.73747379       0.78900743       0.01961251      -5.91807115
P        0.13417369       5.11747265       0.02947412       2.26671544       0.31729873       0.41416747      -0.36122859      -0.13834020       0.47172788      -5.58648467
S        1.13969861       3.99523654       8.91564753      -2.57446031       0.01547922       0.41545689       0.06474221      -0.64007366      -0.00750744      -4.65948135
S        9.23718814       3.86238017       1.28185811      -0.29454452      -1.77768130       0.67694025       0.82591963       0.79992074      -0.51033044      -4.45728159
S        4.22903808       1.25228480       9.30739379      -1.04339334       0.68865588      -0.66101749      -2.06979275       2.36752272      -1.59579778      -4.45515244
S        6.75478509       1.07056129       1.32639139       2.68747835      -0.42210307      -0.84191158      -0.32054526      -0.57258517      -0.82654953      -4.37406814
S        2.70391288       2.80754517       2.37797170      -1.42447200       0.44071275      -0.30477187       0.82987028      -0.41507292      -0.25803304      -4.24881756
S        1.03524864       9.34509022       3.87426283      -1.62569514       1.47703717      -2.00640159       0.29764995       0.23223296      -0.42633024      -4.46877629
S        9.17313586       9.13237767       6.33137773      -0.81224812      -1.71538485      -1.23062668      -0.51298380      -0.59809697       1.21214437      -4.70909068
S        3.99975483       6.32295372       3.80186315       1.12368838       1.12137699      -0.43266278      -0.97390062       0.68694764      -0.10312663      -4.50735778
S        6.08408341       6.51878126       6.30278420      -0.08232414      -2.67391614       0.86868298       0.27129704      -0.21305242       0.31358328      -4.59945030
S        2.34144065       7.65004870       7.32954024       0.51238467      -0.78497266       0.79079477       0.39256245       0.49630618       1.07401991      -4.15648073
S        6.61030641       4.22074985       3.74933849      -0.60787374      -1.69354753       0.63231302      -0.58163846      -0.41285765       1.54740763      -4.28364071
S        3.80615207       3.76072115       5.85044531      -0.50380035       1.04016676       0.97323250       0.17107356       0.36187503       0.57671094      -4.72796163
S        8.77056619       1.20466077       3.98834700       0.17987041      -1.46104434      -1.16238310      -0.40029708       0.35042328      -0.40176597      -4.61846151
S        0.73804834       1.46979499       6.30494259       1.20629596      -0.42906137      -0.09632165       0.27461177       0.08432868       0.08118960      -4.41466156
S        7.44766969       2.19286582       7.58494406       1.58562969      -0.07675422      -0.54023909      -0.14742765       1.00428081       0.93577838      -4.63283268
S        6.04490531       8.96928648       9.11138571       1.08539921      -0.02918612      -2.17922906       0.09629825      -0.28153431      -0.13122034      -4.54881077
S        3.97182753       9.56886680       1.51594282      -0.74730561       1.70309915       1.82033785      -0.56205559      -0.95380688       0.74662924      -4.53081360
S        9.10708643       6.16553405       9.05739746       1.08428251      -0.08462901      -0.19051068      -0.09673774      -0.03376778       0.23260774      -4.57650721
S        1.59622375       6.32474236       0.95843182      -0.79508541       0.28180354       0.43387810      -0.60024285      -0.11697951      -0.24003202      -4.52788731
S        7.73955548       7.75040980       2.51552811      -0.20756049       0.55819743       1.32371840      -0.46430591       0.88506252       0.13351348      -4.34505576
Cl       0.30061836      -0.25710149      -0.35816208      -1.28518997       1.25360242      -2.14444042      -0.29699799       0.35170448       0.04044773      -3.76362264
Cl       0.32029614       5.72017412       4.97584727       0.56155720      -0.60756401       0.25943133      -0.37697595      -0.44095668      -0.30856460      -3.41909337
Cl       5.10299282       0.51963667       5.06415952      -0.97919691       1.84299057      -0.43764658       0.15579854      -0.33633029      -0.03034144      -3.74681854
Cl       5.67095157       5.21004147      -0.17952691       0.40190320      -0.64348791      -3.07798303      -0.59741974      -0.04740910      -0.02693474      -3.51265031
52
Lattice="10.279498 0.0 0.0 0.0 10.279498 0.0 0.0 0.0 10.279498" Properties=species:S:1:pos:R:3:momenta:R:3:forces:R:3:energies:R:1 spacegroup="_JSON {\"number\": 1, \"setting\": 1}" unit_cell=conventional occupancy="_JSON {\"0\": {\"Li\": 1.0}, \"1\": {\"Li\": 1.0}, \"2\": {\"Li\": 1.0}, \"3\": {\"Li\": 1.0}, \"4\": {\"Li\": 1.0}, \"5\": {\"Li\": 1.0}, \"6\": {\"Li\": 1.0}, \"7\": {\"Li\": 1.0}, \"8\": {\"Li\": 1.0}, \"9\": {\"Li\": 1.0}, \"10\": {\"Li\": 1.0}, \"11\": {\"Li\": 1.0}, \"12\": {\"Li\": 1.0}, \"13\": {\"Li\": 1.0}, \"14\": {\"Li\": 1.0}, \"15\": {\"Li\": 1.0}, \"16\": {\"Li\": 1.0}, \"17\": {\"Li\": 1.0}, \"18\": {\"Li\": 1.0}, \"19\": {\"Li\": 1.0}, \"20\": {\"Li\": 1.0}, \"21\": {\"Li\": 1.0}, \"22\": {\"Li\": 1.0}, \"23\": {\"Li\": 1.0}, \"24\": {\"P\": 1.0}, \"25\": {\"P\": 1.0}, \"26\": {\"P\": 1.0}, \"27\": {\"P\": 1.0}, \"28\": {\"S\": 1.0}, \"29\": {\"S\": 1.0}, \"30\": {\"S\": 1.0}, \"31\": {\"S\": 1.0}, \"32\": {\"S\": 1.0}, \"33\": {\"S\": 1.0}, \"34\": {\"S\": 1.0}, \"35\": {\"S\": 1.0}, \"36\": {\"S\": 1.0}, \"37\": {\"S\": 1.0}, \"38\": {\"S\": 1.0}, \"39\": {\"S\": 1.0}, \"40\": {\"S\": 1.0}, \"41\": {\"S\": 1.0}, \"42\": {\"S\": 1.0}, \"43\": {\"S\": 1.0}, \"44\": {\"S\": 1.0}, \"45\": {\"S\": 1.0}, \"46\": {\"S\": 1.0}, \"47\": {\"S\": 1.0}, \"48\": {\"Cl\": 1.0}, \"49\": {\"Cl\": 1.0}, \"50\": {\"Cl\": 1.0}, \"51\": {\"Cl\": 1.0}}" source=mace_600K frame_in_traj=500 config_type=Li6PS5Cl_md_snapshot energy=-212.15518188476562 stress="0.006598454434424639 -0.000787910190410912 -0.0006404691375792027 -0.000787910190410912 0.006402441766113043 -0.0012228453997522593 -0.0006404691375792027 -0.0012228453997522593 0.002892563119530678" free_energy=-212.15518188476562 pbc="T T T"
Li       3.23948975      -0.25452021       2.90950108       1.45015992       0.32084722       0.07819382       0.33524561       0.34772664      -0.42755598      -3.30533534
Li      -3.46014600       4.74531268       7.73055572       0.22359178       0.63845577      -0.58566656       0.08191371      -0.11406817       0.47364968      -3.49030958
Li       2.39164584       3.13358729       4.83007395       0.09055596      -0.10569429      -0.80661523      -0.22441232       0.24734670       0.89741540      -3.48055300
Li      -0.03691038       2.49900427       2.44406395      -0.31117354       0.72956980       0.15049413       0.50658733       0.03594840      -0.03353108      -3.61738832
Li       3.11379919       3.86762767       0.48471412       0.46024940      -0.03579087      -0.07348410       0.02997319      -0.28904384       0.18267618      -3.60655792
Li       4.61106494       2.05106975       3.30870922      -0.53245603      -0.64497034      -0.31998802       0.29920059       0.25628066      -0.02360426      -3.46249439
Li       4.57358400       7.45709881       8.96727006      -0.30273845       1.06499578       0.64239168      -0.02321083      -0.01660311       0.15747321      -3.62258567
Li       7.74059767       8.90462198      10.73901346      -0.92501686       0.74953145       0.76510461       0.26813439       0.11275285       0.05821173      -3.56519815
Li       2.81105893      10.46854784       7.79782631       0.21068486       1.14541656      -0.07692588      -0.43581051      -0.53240180      -0.38547102      -3.54153450
Li       3.70980179       8.44959075       5.46425383      -0.22511599       1.02106969       0.25629087       0.09194957      -0.03261767       0.04240860      -3.58211388
Li       2.95415671       5.45062895       8.31335373      -0.09284228      -0.28250523       0.21539586       0.16335976       0.25045180      -0.27011767      -3.46253887
Li       0.60782922       8.31577673       9.49604072       1.02162929       0.16906630       0.26103188       0.21319364      -0.11811951      -0.09177113      -3.58745135
Li       7.66867569       2.59290059       5.37504075      -0.28621118      -0.42193856      -1.75277476       0.19034192      -0.32216901       0.18879205      -3.49705099
Li       1.82203077       5.39306334      13.10047964       0.01409749      -0.17148302      -0.19633334       0.41621828      -0.53824002       0.53406340      -3.58769177
Li      11.17599372      -3.30655319       6.48517582      -0.10379056      -0.33688843       0.74300642      -0.17115927       0.32597309       0.11369631      -3.58680339
Li       8.04443330       0.22558041       8.12900554       0.09668408       0.35196911       0.03631942       0.10510071      -0.09799550       0.01429803      -3.63352053
Li       7.48109372       2.51240867      10.08432920       0.49731795      -0.46203806       0.18342328      -0.30769059      -0.47534823      -0.13206421      -3.47774227
Li       5.24169389       2.09371370       7.24685380       0.36093748       0.38273705      -0.13493908       0.00145690      -0.08140258       0.01262327      -3.51120658
Li      10.30280290       7.44409750       3.06394424      -0.43506019       0.55350266       0.07469382      -0.39336422       0.22920813       0.26581275      -3.53440411
Li       8.18128807       6.16881232       4.49546788      -0.26381245       0.62177559      -0.54838964       0.17083625       0.12638071      -0.08760196      -3.56564924
Li       9.95672280       2.40951724      -2.14063042       0.61831508      -0.15261174      -0.48637994      -0.12060722      -0.08700903       0.10525168      -3.61597301
Li       7.35845622       9.77716017       3.67304163      -0.11009550       0.03739820      -0.71866287      -0.13541237      -0.30333221       0.01639535      -3.64916311
Li       5.42351271       7.19121434       2.02831699      -0.04279982      -1.33427246      -1.31584839       0.32304478       0.26574516      -0.32307515      -3.44455418
Li       7.14679294       4.90353822       1.55656075       0.10448312      -0.57141405       0.83784745      -0.16791053       0.51732320       0.12911198      -3.43365567
P        5.09969337       0.01189262       0.03328098       0.34438845      -0.42017835      -0.89557390      -1.00212502      -0.38330519      -0.23474857      -5.82151389
P        5.40019587       5.22838995       4.85412590      -1.14857217       0.03780590       0.34695398      -1.27561712       0.53506017       1.12231517      -5.71210361
P        0.19692015       0.12886792       5.35797296      -1.12904486       2.26621239       1.49722200      -0.58544779       0.01065603      -0.12190838      -5.40720463
P       -0.11823773       5.16555499      -0.46247686       0.21520962      -1.00862681       0.41720507       1.05934727      -1.46584427       2.82949877      -5.53021193
S        1.34543377       3.88519140       9.08608474       0.32716094      -0.08152229      -0.05655740      -0.10651778       0.36863947      -0.00513200      -4.71251364
S        8.98653632       3.79979482       0.83137067       1.66578110      -0.43876397       0.80252367       0.50744259       0.31904051      -0.21419792      -4.52235822
S        3.83256142       1.35594627       9.39433002      -2.51112180       0.37002588      -0.52012145       0.37513760       0.58932102       0.24445859      -4.51224767
S        6.26258533       0.88072432       1.42591505       1.65087926      -0.61192172       1.69791893       0.30298561       0.28922254       0.22481678      -4.69238733
S        2.48012094       3.04759370       2.68489664      -1.10823936      -0.57421180       0.00706162       0.10305350      -0.40020269      -0.93411183      -4.16968787
S        1.54608717       9.27357218       4.10279000       0.59011395       0.05435797      -1.46817090      -0.91521984      -0.11645831       0.82547951      -4.65692118
S        9.16182124       9.15105117       6.44024605       2.51821462      -1.65145260       2.32151802       1.04379249       0.34705740      -0.67014909      -4.38871613
S        4.19871711       6.54955241       3.80013617       0.43985522       1.13282234       0.58215597      -0.23585302      -0.20179339       0.07976007      -4.59603284
S        6.43580747       6.39193018       6.18014886       0.70970371      -0.07504947       1.68545542       0.34253201       0.29462901      -0.39597812      -4.49649031
S        2.78199588       7.96983937       7.58327318       1.02476050      -0.30637461      -0.80265944      -0.56213486      -0.24453676       0.25674349      -4.24043047
S        6.42789817       3.85141586       3.80517211      -1.68483077      -0.08347004       1.51111415       0.23590153      -0.12464626      -0.47899100      -4.90723319
S        4.00753852       4.38333136       6.25071735      -0.18276931      -1.23761274       0.15987369       0.38091117      -0.60903478      -0.26275146      -4.39345646
S        9.08328598       1.06842727       4.01043150       2.07486081      -1.48523515       0.09496801       0.50896430       0.02182616       0.36623746      -4.63069043
S        1.16327709       1.68550892       6.43302533      -0.74720135       1.05955595      -1.27186778      -0.10807072      -1.00604773      -0.40895438      -4.74913792
S        7.55907909       2.46778195       7.77173079       1.86933256      -1.30327170       1.81778232      -0.15731661       0.28658935      -0.39891231      -4.53470683
S        6.02095135       9.26676802       8.80893754      -0.59859586       0.43500505      -0.40173030       0.79944074       0.06532837       0.03494949      -4.60473190
S        3.84633644       8.80922112       0.86377974      -2.32992751      -1.45104308      -0.26350832       0.22436696       0.19553083       0.24323666      -4.47117803
S        9.14292447       6.20395665       8.58594595      -2.68457255       0.34122968       0.90274390      -1.07731748       1.23280716      -1.50412631      -4.67040010
S        0.66334409       6.36060163       1.15630307       0.90038787       1.08243482       0.22463464       0.40512183       0.17830755      -1.51181102      -4.32835567
S        7.91147494       7.53910557       2.47651912      -2.12992751       1.05319476      -0.35808977      -0.54735124      -0.05998987       0.08955427      -4.21206063
Cl      -0.56676441       0.09218085      -0.33740995      -0.34145534      -0.15810042      -1.82363180      -0.23318407      -0.24164742      -0.03693103      -3.47654951
Cl       0.43101382       5.42633706       4.84248535      -1.01893390      -0.77491872      -1.09564839      -0.35883600       0.27353111      -0.29563135      -3.60711962
Cl       5.37181805       0.34720626       5.06796490       2.01420118       0.19688671      -0.99735684      -0.38426834       0.01125081      -0.25034392      -3.56738198
Cl       5.03350945       5.23260833      -0.29962092      -0.24725118       0.36549445      -1.34240004       0.04328363       0.12792270      -0.00945853      -3.68173885
52
Lattice="10.279498 0.0 0.0 0.0 10.279498 0.0 0.0 0.0 10.279498" Properties=species:S:1:pos:R:3:momenta:R:3:forces:R:3:energies:R:1 spacegroup="_JSON {\"number\": 1, \"setting\": 1}" unit_cell=conventional occupancy="_JSON {\"0\": {\"Li\": 1.0}, \"1\": {\"Li\": 1.0}, \"2\": {\"Li\": 1.0}, \"3\": {\"Li\": 1.0}, \"4\": {\"Li\": 1.0}, \"5\": {\"Li\": 1.0}, \"6\": {\"Li\": 1.0}, \"7\": {\"Li\": 1.0}, \"8\": {\"Li\": 1.0}, \"9\": {\"Li\": 1.0}, \"10\": {\"Li\": 1.0}, \"11\": {\"Li\": 1.0}, \"12\": {\"Li\": 1.0}, \"13\": {\"Li\": 1.0}, \"14\": {\"Li\": 1.0}, \"15\": {\"Li\": 1.0}, \"16\": {\"Li\": 1.0}, \"17\": {\"Li\": 1.0}, \"18\": {\"Li\": 1.0}, \"19\": {\"Li\": 1.0}, \"20\": {\"Li\": 1.0}, \"21\": {\"Li\": 1.0}, \"22\": {\"Li\": 1.0}, \"23\": {\"Li\": 1.0}, \"24\": {\"P\": 1.0}, \"25\": {\"P\": 1.0}, \"26\": {\"P\": 1.0}, \"27\": {\"P\": 1.0}, \"28\": {\"S\": 1.0}, \"29\": {\"S\": 1.0}, \"30\": {\"S\": 1.0}, \"31\": {\"S\": 1.0}, \"32\": {\"S\": 1.0}, \"33\": {\"S\": 1.0}, \"34\": {\"S\": 1.0}, \"35\": {\"S\": 1.0}, \"36\": {\"S\": 1.0}, \"37\": {\"S\": 1.0}, \"38\": {\"S\": 1.0}, \"39\": {\"S\": 1.0}, \"40\": {\"S\": 1.0}, \"41\": {\"S\": 1.0}, \"42\": {\"S\": 1.0}, \"43\": {\"S\": 1.0}, \"44\": {\"S\": 1.0}, \"45\": {\"S\": 1.0}, \"46\": {\"S\": 1.0}, \"47\": {\"S\": 1.0}, \"48\": {\"Cl\": 1.0}, \"49\": {\"Cl\": 1.0}, \"50\": {\"Cl\": 1.0}, \"51\": {\"Cl\": 1.0}}" source=mace_600K frame_in_traj=600 config_type=Li6PS5Cl_md_snapshot energy=-210.19680786132812 stress="0.006271050777286291 -0.0006497350987046957 -0.0035697685088962317 -0.0006497350987046957 9.532530384603888e-05 0.0003103225026279688 -0.0035697685088962317 0.0003103225026279688 0.005586422514170408" free_energy=-210.19680786132812 pbc="T T T"
Li       4.56479175       1.48053004       2.93887866       0.07329084      -0.22079734       0.72864053      -0.06797878      -0.03795250      -0.25192863      -3.54390217
Li      -3.14467852       4.90840038       8.42631083      -0.72383023      -0.03871020       0.03488512       0.16581202       0.20580086      -0.06432272      -3.35418221
Li       2.11244194       2.41280899       4.52186216      -0.16884130      -0.01136646      -1.45215184       0.00103326      -0.16538095       0.03600289      -3.54604732
Li       0.73355830       1.85090655       1.38953590      -0.24222350      -0.62524466       1.12953212      -0.28755999      -0.36698148      -0.20514204      -3.54041041
Li       3.29666947       3.28568120      -0.14895136       0.46755765      -0.16707803       0.53493644      -0.24409339      -0.47748727       0.26778513      -3.54293299
Li       3.38459295       4.79807240       2.06554215       0.47735273      -0.00919726       0.82735864       0.11344845       0.74468350      -0.27777943      -3.46792677
Li       3.86584860       9.03355931       6.63488986       0.07465472      -0.12444302      -0.54629980      -0.23527929      -0.21163628       0.33102083      -3.26636542
Li      10.21753200       8.44546320      12.45117814      -0.57160688      -0.30972820      -0.97438081       0.31686911      -0.13388930       0.17974639      -3.50269508
Li       5.40880944      12.49398697       6.71250167      -0.26776388       1.00165899       1.30405949      -0.36442590       0.21573953       0.17681229      -3.52375622
Li       1.64722244       6.34712052       5.06358963      -0.68213600       0.38645861      -0.97422174       0.16142650       0.15618347       0.22291504      -3.58683719
Li       0.06677209       5.96352905       7.26636416       0.20653448       0.79742973      -0.09117928       0.22856052       0.25101995       0.69683367      -3.58927496
Li       1.48354144       9.80905111       8.12382537       0.06534743       0.85882767      -0.93379092      -0.11075260      -0.38310599       0.31984946      -3.60883485
Li       8.48017406       3.17784594       5.18506612       1.66374714      -1.01008947       0.06641658      -0.21796390      -0.28954235       0.00888835      -3.46708745
Li       0.79207085       4.11902498      13.09789866       0.73134531      -0.05080724      -0.69761301      -0.23991825       0.26974592       0.10229559      -3.34254800
Li      14.06009477      -4.43779176       7.80317298       1.50541835      -0.45785287      -0.08508939      -0.27274644      -0.14652234       0.03342886      -3.60580643
Li       7.55152600       0.42998657       6.56392552       0.66828063       1.03226291      -0.74050101      -0.10815855       0.10187152       0.45928675      -3.42248318
Li       7.84275950       1.04891083       9.66288677       0.96578110      -0.33231761      -0.91046060       0.35131356      -0.32442862      -0.29892334      -3.45732467
Li       6.12777614       2.97871542       9.86388390      -0.09251873       0.69209562      -0.23151716      -0.22163126       0.24287692      -0.81193393      -3.23860711
Li       6.55629733       5.02405704       1.50936145      -1.00994504       0.29426061       0.39241262       0.45976859       0.36979237       0.41103488      -3.38023204
Li       8.01174665       6.57355461       4.81644612       0.29315348      -0.59539022       0.21505281      -0.02244097       0.27683002      -0.30970281      -3.58914538
Li       9.83258376       2.75374114      -1.75033860       0.38703984       0.35388276      -0.46870960       0.61535776      -0.21467869       0.07602828      -3.40566262
Li       8.04630387      10.11730463       3.85688520      -0.36949436      -0.18480856      -0.48271055      -0.43455419      -0.30025068      -0.08568905      -3.53182414
Li       4.93053056       8.73983002       3.68684430       1.12093699       0.19355918      -0.59809866       0.06341221      -0.26064253      -0.57874537      -3.43973407
Li       8.39771934       8.56952377       0.14659690       1.04082857      -0.72822024      -0.12747245      -0.32881850       0.01016285       0.18923005      -3.53179283
P        5.10622034       0.09810160       0.01018399      -0.43996894       0.04770813      -2.02407260      -3.56325674      -1.65595770      -1.35176146      -5.66000593
P        5.15377862       5.03780488       4.97919557       0.76331413      -1.80506485       0.40320217      -1.11560893      -1.37399554       0.22108179      -5.58089733
P        0.40445594      -0.23953793       4.97690647       0.49856478      -1.77206143       2.51449071      -0.22725880       0.80882657       0.60286814      -5.66339254
P        0.04290127       5.26749021       0.23504047      -2.80860567      -0.41928548       1.03200970       1.68478608       0.07865633       0.21972287      -5.76456356
S        1.44153434       4.30361110       9.20808323       0.78733593      -0.70472408      -1.76944949      -1.12938476       0.29031587       0.02183009      -4.44152275
S        9.21512719       3.83742158       1.13532753      -0.74838656       0.27568230       1.89316582      -0.47279447      -0.48932493       0.26304874      -4.63370556
S        3.81716584       1.28803435       8.90562504       0.10196159       0.00062879       1.94668265       0.48710030      -0.45995393       0.30837703      -4.24944991
S        6.22214938       1.33703925       0.95502951       1.60231288       0.78781497       1.64768713       1.91000795       1.47428274       2.61757660      -4.88971634
S        2.63892671       2.77203429       2.23260302       0.71167406       0.92122087       1.23437842       0.16929705      -0.48759252       0.13916185      -4.50287965
S        1.59407506       8.70270609       4.08332735       0.35385860       1.01702379      -0.21314446       0.07727588       0.31219906      -0.09258169      -4.57314810
S        9.15266999       9.14817855       6.05732174      -0.45855640      -0.84263111       1.76719964      -0.15387218      -0.26626137      -0.27466398      -4.49179125
S        3.88665712       6.15199937       3.90712109       0.62562795      -3.01644565      -0.62329374       0.24871665       1.24743342      -0.57602084      -4.63599660
S        5.97601648       5.96732351       6.56922455      -2.46616904       1.21742636      -0.16208483       0.50875944       0.60835636       0.12468034      -4.66124476
S        1.95579717       7.27073446       7.27566486       0.62177611       1.38969086       0.75501200       0.64214957       0.90114629      -0.04279318      -3.78159356
S        6.47428480       4.00556593       3.74310655       0.50409631      -1.80712380      -3.36348999      -0.03066440       0.09161700       0.27781987      -4.55724375
S        3.46148988       3.86202845       5.83143422      -1.41950447       0.87244458       0.39875889       1.39207768       0.11864085       0.26188499      -4.23832828
S        9.88875799       1.22896418       3.62332263      -0.47741687      -0.91616302       0.87890954      -0.04977241       0.07360210       0.19836251      -4.59817344
S        1.18000443       1.09538606       6.41288925      -0.60053215      -2.67379449       1.35856795       0.16395399      -0.20067558      -0.35504156      -4.44205701
S        7.64200688       2.63556072       7.96142273       0.85549472       0.54093841      -0.13181586      -0.58878797      -0.00956790      -0.63133591      -4.70638508
S        6.00693470       9.29994086       8.85172667      -0.88424210      -1.89090292      -0.42161490       0.71106434      -0.56750453      -0.18867692      -4.43689689
S        3.83794648       9.38743217       1.43184068      -0.82862072       0.67983556      -3.70432428       0.96785748       0.62736654      -0.51403892      -4.07853758
S        9.12447836       6.49040664       9.49134254      -2.53267032       0.58521858       0.03673074      -0.64292312       0.09860377      -0.74797773      -4.69037062
S        1.23143399       6.28774284       1.70176477       0.72530729       1.68514126       2.03768169      -0.51674914      -0.54180646      -0.68774736      -4.46081045
S        7.92337128       8.18720278       2.56243319      -1.23396809       0.15844016       1.79329270      -0.39263877      -0.41922909       0.01015838      -3.78981513
Cl      -0.25079716       0.17035279      -0.33241706       0.17189250       1.73980531       0.87866483       0.04704420       0.08854444       0.05166538      -3.68862581
Cl      -0.50637915       4.99778112       5.31987188      -0.15806690       1.88266712      -1.60558855       0.26627293       0.13612495      -0.49499756      -3.80548167
Cl       5.75762189       0.50393227       4.97141368       0.92320417      -0.15837715      -1.25773801      -0.06225182      -0.26143333       0.01307121      -3.82020783
Cl       4.89337567       4.90504915      -0.12806610       0.19737689       1.46050158      -1.21891455       0.34891957       0.24537857      -0.00066342      -3.86840129
52
Lattice="10.279498 0.0 0.0 0.0 10.279498 0.0 0.0 0.0 10.279498" Properties=species:S:1:pos:R:3:momenta:R:3:forces:R:3:energies:R:1 spacegroup="_JSON {\"number\": 1, \"setting\": 1}" unit_cell=conventional occupancy="_JSON {\"0\": {\"Li\": 1.0}, \"1\": {\"Li\": 1.0}, \"2\": {\"Li\": 1.0}, \"3\": {\"Li\": 1.0}, \"4\": {\"Li\": 1.0}, \"5\": {\"Li\": 1.0}, \"6\": {\"Li\": 1.0}, \"7\": {\"Li\": 1.0}, \"8\": {\"Li\": 1.0}, \"9\": {\"Li\": 1.0}, \"10\": {\"Li\": 1.0}, \"11\": {\"Li\": 1.0}, \"12\": {\"Li\": 1.0}, \"13\": {\"Li\": 1.0}, \"14\": {\"Li\": 1.0}, \"15\": {\"Li\": 1.0}, \"16\": {\"Li\": 1.0}, \"17\": {\"Li\": 1.0}, \"18\": {\"Li\": 1.0}, \"19\": {\"Li\": 1.0}, \"20\": {\"Li\": 1.0}, \"21\": {\"Li\": 1.0}, \"22\": {\"Li\": 1.0}, \"23\": {\"Li\": 1.0}, \"24\": {\"P\": 1.0}, \"25\": {\"P\": 1.0}, \"26\": {\"P\": 1.0}, \"27\": {\"P\": 1.0}, \"28\": {\"S\": 1.0}, \"29\": {\"S\": 1.0}, \"30\": {\"S\": 1.0}, \"31\": {\"S\": 1.0}, \"32\": {\"S\": 1.0}, \"33\": {\"S\": 1.0}, \"34\": {\"S\": 1.0}, \"35\": {\"S\": 1.0}, \"36\": {\"S\": 1.0}, \"37\": {\"S\": 1.0}, \"38\": {\"S\": 1.0}, \"39\": {\"S\": 1.0}, \"40\": {\"S\": 1.0}, \"41\": {\"S\": 1.0}, \"42\": {\"S\": 1.0}, \"43\": {\"S\": 1.0}, \"44\": {\"S\": 1.0}, \"45\": {\"S\": 1.0}, \"46\": {\"S\": 1.0}, \"47\": {\"S\": 1.0}, \"48\": {\"Cl\": 1.0}, \"49\": {\"Cl\": 1.0}, \"50\": {\"Cl\": 1.0}, \"51\": {\"Cl\": 1.0}}" source=mace_600K frame_in_traj=700 config_type=Li6PS5Cl_md_snapshot energy=-211.20108032226562 stress="0.0012207388645038009 -0.001922287279739976 -0.0021008376497775316 -0.001922287279739976 0.003214803524315357 -0.0015850883210077882 -0.0021008376497775316 -0.0015850883210077882 0.002847838681191206" free_energy=-211.20108032226562 pbc="T T T"
Li       4.81545404       2.62321644       3.34970144       0.66809533       0.24397989       0.44906020       0.19445297      -0.14355224      -0.05625552      -3.52332215
Li      -7.05246361       4.00794889      10.72816449      -0.84677091       0.17781977       0.46094021      -0.03665560      -0.09485068       0.04522949      -3.64560573
Li       2.66842519       0.36537951       2.52511031      -0.19513062      -0.63007221       0.67693902       0.47633588      -0.09798194      -0.35895109      -3.44594154
Li       1.02052473       1.98172364       1.14451848       0.81411876       0.58501655       0.76079277      -0.50562143      -0.67765599      -0.65016329      -3.41023398
Li       2.46862405      -0.71973004      -4.55748293       0.10656969       0.23867195      -0.37467194       0.01537018       0.38021511      -0.21558714      -3.38527969
Li      -0.02575322       4.45947954       2.79097257       0.26290448      -1.02180579       0.47479166       0.47128141       0.08506057       0.18124121      -3.48841617
Li       4.48720132       8.25913731       7.10454271      -0.61153076       0.12637250      -0.98858177       0.71440262       0.03674128       0.15351665      -3.40630699
Li       8.40292789       6.66392661      14.71811147       0.27599474      -0.31942614       0.29959998      -0.31179187       0.09275615      -0.18192407      -3.49259056
Li       5.28226007      12.43212026       7.25033748      -0.08832786       0.64864657       0.66938752      -0.20255099      -0.35070926       0.10383250      -3.68598731
Li       7.07679143       7.15547061      -0.28588074       1.10153408       0.59051089      -0.01380503      -0.41596615       0.25559753       0.51181042      -3.63504855
Li       2.34424363       6.73712229       4.96877673       0.07802648       0.04529153      -0.94606636      -0.46817446      -0.03740788       0.31819385      -3.33996969
Li       2.05420411       9.73049833       8.69156534      -0.85726043      -0.58726960       0.66172366      -0.15830907       0.38196486       0.78673983      -3.57703881
Li       9.80804908       2.23585001       8.21155667       0.34238721       0.30717936      -1.20378545       0.03829078       0.23364595      -0.01921046      -3.38371939
Li       2.38674464       2.32365033      14.95811798       0.82304113       0.26428971      -0.98667949       0.08350146       0.11235688       0.23308341      -3.37876146
Li      13.27526204      -4.53645610       8.45919650       0.82997992      -0.76034445       0.19456427       0.03562399       0.04729573      -0.09708461      -3.54178965
Li       8.26508316       2.34310227       5.57775598       1.07895027      -0.88399525      -0.67440809      -0.30676490       0.54738355       0.43099713      -3.49267116
Li       6.90976564       3.51842140      10.26402137      -0.68096738      -0.18207216       0.00977326      -0.08472794      -0.14995450      -0.20991045      -3.55287535
Li       7.84303249       4.91530198       7.78360262       1.05824859      -0.00096110      -0.87127213      -0.47610950      -0.54641831      -0.64818108      -3.45317093
Li       5.77151388       6.26126880       2.43156121      -0.34326907      -0.26549975      -0.57219487       0.35755706       0.10960399      -0.60978222      -3.60960861
Li      10.25541614       7.38768458       6.85844903      -0.35471177       0.67263341       0.00082338      -0.07746600      -0.16388920       0.28219372      -3.44329898
Li       7.77866257       0.33885242      -2.09951830      -0.48308028       0.29810105       0.75893248       0.74887496       0.40919822      -0.55586338      -3.28990982
Li      10.15536352       7.95125037       1.79998428       0.77284888      -0.68919914       0.98422601       0.09005161       0.02513092      -0.31841385      -3.70914714
Li       6.63100997       8.97800054       3.99293192      -0.10428244      -0.39604911      -0.18179570      -0.01309373      -0.02430878      -0.16393615      -3.38746927
Li       8.12335884      10.07046795       1.57583169       0.45278641      -0.53539360      -0.27267766       0.05457392       0.19392402      -0.19037861      -3.59950106
P        4.98211082       0.16587073       0.05729511      -1.22164188       0.56774568       1.97139730      -0.71348524      -0.64214408       0.49045801      -6.09447855
P        5.34452771       5.28999993       5.48053505       1.61448144       0.85218665      -1.89394125      -0.59619170       0.50661343       1.19105053      -5.91769481
P       -0.40962314      -0.08336124       4.83852215       0.42903158      -1.30721928       1.07616661      -0.00336777       0.19650044      -1.27310896      -5.58893406
P        0.11316084       4.80698780      -0.22105527       0.93458887      -2.49801313       0.78173963       0.60953003       0.75839901      -1.55717254      -5.74727881
S        1.48100434       3.75440079       8.73844928       0.74465307       2.86329379      -0.26716670      -0.82513201       0.61958182       0.56527936      -4.42643201
S        9.50308823       3.42815101       0.87756833      -0.48158847      -0.47951795      -0.80593400      -1.51012397      -1.04341984       0.40280619      -4.78455190
S        3.72980076       1.35963748       9.28244088      -2.29878746       1.88212755       0.07678028      -0.54670054       0.02080909      -0.47918493      -4.40558168
S        5.96832493       1.43497627       1.26847832      -0.19378135      -0.03497782       0.89113777       0.95292068       0.42970854       0.67412102      -4.48868389
S        2.68046218       2.71314947       2.33089943      -0.38306661       0.36532941       0.38057080       0.33895254       0.18643893       1.18749917      -4.39837775
S        1.11236414       9.30118886       3.52676555       2.27438697      -1.33868678       0.70990454      -0.57750684      -0.29819936       1.22300196      -4.59798992
S        8.52386372       9.05728559       5.85825481       0.49091039      -1.81728979       0.02837711       0.03238407      -0.45805368       0.12795183      -4.84796409
S        4.55502484       6.80553874       4.29122662      -0.22638335       0.28009482      -0.56643672      -0.54291356       0.31939003      -0.11196156      -4.63398004
S        6.40201727       6.50901163       6.76111761      -0.60965707       2.05088907       0.96422865       0.06500626       0.33087325       0.18649411      -4.29780689
S        2.24929914       7.94212633       7.36765559      -0.07578960       0.25940733      -0.97940163      -0.12569568      -0.76210105      -0.63945693      -4.68989325
S        6.66946481       4.35713119       4.37695465      -1.43652075      -0.18757674       1.38166992       0.87869680      -1.04278266      -1.21563578      -4.53310962
S        4.12625262       4.03278620       6.58843618      -2.74234700       0.71196884      -0.79862478      -0.49922574       0.79620159      -0.69823509      -4.41645387
S        8.78729121       1.24616650       3.64854255       1.99830359       0.53889866       1.27354162       0.23944321      -0.63290286      -0.32280189      -4.37311652
S        0.55608060       1.15231236       6.10133611      -1.22216563      -0.98252285      -0.20269044       0.66176635       0.36043826       0.66919708      -4.72119246
S        7.41309342       2.63324527       7.92053857      -0.73933802      -0.55227602      -0.62710426       0.83176523      -0.08909293       0.00470763      -4.47909760
S        6.20133394       9.50403503       9.00433364       1.69484220      -1.71394456      -1.15664813      -0.63027996      -1.30699265       0.01257443      -4.57105092
S        4.01687656       9.00628049       1.23626675       1.56839377      -2.24569433      -1.02072557       0.20115741       0.60126966      -0.34438959      -4.03137106
S        8.94066091       6.11396903       9.17218834      -1.09989940      -0.69108603      -1.37952013       1.49092889      -0.02967177       0.18739289      -4.49255386
S        1.31424684       5.84838318       0.99306446      -2.05968475       0.08140433       0.20642122       0.28052831       0.54458141       0.42266315      -4.45396116
S        7.82684856       7.83527964       2.07287871       1.06639734       1.49722562       0.07341690      -0.45569399      -0.58676994       0.84100688      -4.22330701
Cl       0.16917074      -0.58826342       0.17969320      -0.38306187       1.22248527       0.61166802      -0.01591643       0.64073002      -0.27732232      -3.37290519
Cl      -0.16436762       5.16989317       5.01704658      -0.60531621      -0.36662909      -0.40021776       0.32479826       0.40544865       0.08986662      -3.56566250
Cl       4.61939014       0.69166870       5.40181611      -0.18284408       1.20579244       0.58660170      -0.28811038      -0.25934765      -0.27512112      -3.57813042
Cl       5.12949031       5.46396996       0.06751712      -0.95427006       1.91016095      -0.23082801       0.19938055      -0.18965165       0.14712311      -3.59170908
52
Lattice="10.279498 0.0 0.0 0.0 10.279498 0.0 0.0 0.0 10.279498" Properties=species:S:1:pos:R:3:momenta:R:3:forces:R:3:energies:R:1 spacegroup="_JSON {\"number\": 1, \"setting\": 1}" unit_cell=conventional occupancy="_JSON {\"0\": {\"Li\": 1.0}, \"1\": {\"Li\": 1.0}, \"2\": {\"Li\": 1.0}, \"3\": {\"Li\": 1.0}, \"4\": {\"Li\": 1.0}, \"5\": {\"Li\": 1.0}, \"6\": {\"Li\": 1.0}, \"7\": {\"Li\": 1.0}, \"8\": {\"Li\": 1.0}, \"9\": {\"Li\": 1.0}, \"10\": {\"Li\": 1.0}, \"11\": {\"Li\": 1.0}, \"12\": {\"Li\": 1.0}, \"13\": {\"Li\": 1.0}, \"14\": {\"Li\": 1.0}, \"15\": {\"Li\": 1.0}, \"16\": {\"Li\": 1.0}, \"17\": {\"Li\": 1.0}, \"18\": {\"Li\": 1.0}, \"19\": {\"Li\": 1.0}, \"20\": {\"Li\": 1.0}, \"21\": {\"Li\": 1.0}, \"22\": {\"Li\": 1.0}, \"23\": {\"Li\": 1.0}, \"24\": {\"P\": 1.0}, \"25\": {\"P\": 1.0}, \"26\": {\"P\": 1.0}, \"27\": {\"P\": 1.0}, \"28\": {\"S\": 1.0}, \"29\": {\"S\": 1.0}, \"30\": {\"S\": 1.0}, \"31\": {\"S\": 1.0}, \"32\": {\"S\": 1.0}, \"33\": {\"S\": 1.0}, \"34\": {\"S\": 1.0}, \"35\": {\"S\": 1.0}, \"36\": {\"S\": 1.0}, \"37\": {\"S\": 1.0}, \"38\": {\"S\": 1.0}, \"39\": {\"S\": 1.0}, \"40\": {\"S\": 1.0}, \"41\": {\"S\": 1.0}, \"42\": {\"S\": 1.0}, \"43\": {\"S\": 1.0}, \"44\": {\"S\": 1.0}, \"45\": {\"S\": 1.0}, \"46\": {\"S\": 1.0}, \"47\": {\"S\": 1.0}, \"48\": {\"Cl\": 1.0}, \"49\": {\"Cl\": 1.0}, \"50\": {\"Cl\": 1.0}, \"51\": {\"Cl\": 1.0}}" source=mace_600K frame_in_traj=800 config_type=Li6PS5Cl_md_snapshot energy=-211.16204833984375 stress="0.0022519961930811405 -0.0027900198474526405 -0.002330738352611661 -0.0027900198474526405 -0.006468645296990871 -0.005667699966579676 -0.002330738352611661 -0.005667699966579676 0.0006225304678082466" free_energy=-211.16204833984375 pbc="T T T"
Li       2.59691451       2.58985769       4.85226554       0.19184089      -1.03324659      -0.31242687       0.22323658      -0.17901893       0.72793144      -3.46587327
Li      -7.34016355       3.03410433      10.46100953       0.48472226       0.36541270       0.17357046       0.24428912      -0.09630280       0.32045954      -3.63330917
Li       3.18844577      -0.59593610       2.93382555      -0.01274300       0.44461442      -1.24796961      -0.00265922       0.64177412       0.42944980      -3.53268532
Li       5.07404198       2.90156869       1.95596849      -0.14991022      -0.06001286       1.64500163      -0.15324441       0.28155181       0.06689802      -3.62225451
Li       4.05434990      -2.15305518      -4.24796370       0.30535966       0.77682732      -0.11913478      -0.04508645      -1.13961339       0.00196561      -3.41131531
Li       0.62537490       1.60212187       2.48058164       0.88689756      -1.01914189      -0.07583085       0.21786670       0.17132641      -0.18578823      -3.46161200
Li       3.34888296       6.44805757       9.88696564      -0.88536718       0.08733677      -0.73627746      -0.18472311       0.17211464      -0.16025217      -3.59246244
Li       8.26002206       5.63232938      13.56059444      -0.00163126       0.70064191      -0.30865849       0.12089469      -0.32227868       0.09124127      -3.66899355
Li       7.62645626      12.86924346       5.45167637      -0.11067125      -0.62671471       0.00151212      -0.39837468       0.38272512      -0.58508885      -3.41391873
Li       7.15862020       7.48976237       0.21065657       0.63302887       1.27077010       0.58008209      -0.10083430       0.16451295       0.36236453      -3.48166752
Li       0.02767871       7.67778599       5.56312358      -0.43954051       0.70766148      -0.67391590       0.68328369      -0.23727736      -0.25436538      -3.41750078
Li       0.32548493       8.66455697       8.58587146       1.10368947      -0.34915962       0.62378303       0.28980070      -0.28331327      -0.59021038      -3.58785491
Li      10.16439617       3.57262752       7.19659044       0.08654517      -0.02218240       0.03075561      -0.23270661      -0.29953223      -0.05871437      -3.48972043
Li       1.89544931       4.82094416      13.79277799      -0.77252186       0.48098755      -0.40181366       0.03505480      -0.01573685      -0.31575689      -3.48979081
Li      12.23485825      -4.61339465       6.72125786      -0.03330202      -0.22253045      -0.07106855       0.19328324       0.10269407       0.05949055      -3.48825954
Li       7.32803455       4.94033492       8.09988228      -0.37719099      -0.71350896       1.22992481      -0.21199280       0.45130071      -0.34360284      -3.40110474
Li       7.65673218       3.29119896      10.23699491       0.69118786       0.54634088      -0.35276901      -0.40022293      -0.34717637      -0.44206488      -3.45998555
Li       5.36379297       2.60258617       7.78699352      -0.71346526       0.75460465      -1.04848835      -0.19132030       0.17573957      -0.06072792      -3.45567049
Li       5.29634471       8.10104892       2.86239618      -0.61620345      -0.11261983       0.54899632       0.39311284      -0.09148324       0.03847963      -3.48625199
Li      13.93838152       9.58215617       7.90304274      -0.34995691      -0.24278235      -0.54185148       0.15065432       0.03658799      -0.22673632      -3.34974752
Li       7.99429077       0.69926288      -2.15578563       0.61443336       0.75509520       0.26736502       0.23433107      -1.35603917       0.44546661      -3.50088806
Li      10.01997494       8.30727167       1.13408230      -0.60428075      -0.58076057      -0.05456160      -0.16818318      -0.28396672       0.51459819      -3.53761114
Li       7.46080762       8.69774124       4.79694354      -0.41853246      -0.04310288       0.08930993      -0.35081869      -0.06401323       0.18220253      -3.56440511
Li       8.06011528      10.40523868       2.16401033       0.18257860       1.11298811       0.00871764       0.05220575      -0.69300121      -0.12130839      -3.42114754
P        5.26291000       0.02478822      -0.20783871      -0.63889821      -1.87749306      -0.17434023      -2.18671203       0.05174343      -1.08105636      -5.75950897
P        5.18973813       5.55945788       4.87659224       2.51323969      -0.87325446      -0.46284346      -0.26993200      -1.84879804       1.18634284      -5.63675916
P       -0.04548210       0.26552279       5.08740513      -1.72431205      -1.52503042      -1.84454148       0.56320882      -0.75103229      -0.29727665      -5.60460997
P        0.02536639       5.08365463       0.10542959      -0.33121931       2.09243462       1.28156856      -1.13798726      -0.87076437       0.15857944      -5.82009482
S        1.14679509       3.81597114       9.23017080       0.31098689       1.05366942       0.04683163      -0.30278847       0.43532249      -0.35485411      -4.64379753
S        9.10359871       4.00362700       1.51121208      -1.79308374      -2.50607421       1.48121647       0.64043146      -0.05231763      -0.14478430      -4.34534860
S        3.69387958       1.16891539       8.94460917       0.54228064       0.84528885       1.26860325       1.00355363       0.73086745       0.87462950      -4.31114912
S        6.39880860       1.16565038       0.87214771      -1.85321433       2.04836313      -1.11900902       1.25067019       1.40926313       1.05652165      -4.75567460
S        2.90436588       2.53619050       2.70754549       0.66862101      -1.76003967       1.38584746      -0.56521344       0.04998809      -0.91822904      -4.16854465
S        0.88391677       9.48237355       3.40306555       2.25132833      -1.30026483      -1.17200544      -0.28821495      -0.05989704       0.62465245      -4.38407493
S        9.19669915       9.35937078       6.46770038      -1.31809545       1.59319897       0.71751580      -0.58230460       0.12126315       0.09215009      -4.75541063
S        3.69650956       6.54996067       4.03931973      -1.50432192       0.18005037      -1.70648980      -0.81369936       0.81670547      -1.00854504      -4.72805105
S        6.26088575       6.59891757       6.22268757       1.46621708       0.09301064       0.49891824       0.39282441       0.14106342       0.16830015      -4.53145105
S        2.45287707       7.79569081       7.65347360      -1.27040124       0.45415892       1.39048957      -0.92754418      -0.97411495       0.17641483      -4.19401592
S        6.20582161       4.25307780       3.68068543       3.32251273       1.29287751       0.76203944       0.49908710       0.00714190       0.41130492      -4.59299146
S        3.85958164       4.22837579       6.14319313      -0.43761253      -0.85217170      -0.52816520       0.59204435       0.03910272      -0.05760607      -4.28980330
S        8.89299525       1.30120527       4.00246782      -0.52737184       1.39116535      -1.31808913      -0.51920521       0.70558965      -0.27285570      -4.78138815
S        1.24343196       1.18572749       6.28396125       1.67840300      -0.82800857      -2.26513949       0.24047324       0.55853820       0.15430197      -4.51497012
S        7.86036931       2.75807006       7.65019495       1.74648264      -0.25155805       1.09198524      -0.28144738       1.11648381       0.47597662      -4.65910834
S        6.15639206       9.14681126       8.72789251      -1.48842349      -0.27544965       0.21703356       0.65894175      -0.44733858      -0.66064906      -4.53318174
S        4.04501340       9.09396874       0.86404255      -0.49025883       0.65111933      -0.99740229      -0.22387612      -0.92714715       0.55097812      -4.52006198
S        8.90473565       6.29987112       9.40150359       2.47871915      -1.25548118       0.23637514       0.41261059       0.02063549      -0.37719280      -4.60753365
S        1.16219262       6.13784243       1.32060819      -1.29691915      -0.92280505      -0.06512745       1.04929709       0.96300757       0.44625750      -4.60250879
S        7.78111736       7.75225246       2.68628788      -0.62107582      -0.92448691      -0.25024327      -0.27476400       0.96134734      -0.75595272      -4.25302637
Cl      -0.55516146      -0.17691954      -0.31295102      -0.20549638      -0.71573866       0.82263934      -0.17763466       0.32085949       0.50212628      -3.50169533
Cl      -0.11011946       5.48235499       5.18418042      -0.38443283       0.67300133      -0.22739082       0.31998944      -0.48194340       0.13239433      -3.71010184
Cl       4.91075333      -0.64123399       4.89239681       1.35863381       0.09116781       0.49565772       0.47028887       0.85411131      -0.79706764      -3.51983386
Cl       5.01284220       4.64820743       0.02357853      -2.14725396       0.43083186       1.17981446       0.06005611      -0.06125440      -0.18079215      -3.50317770
52
Lattice="10.279498 0.0 0.0 0.0 10.279498 0.0 0.0 0.0 10.279498" Properties=species:S:1:pos:R:3:momenta:R:3:forces:R:3:energies:R:1 spacegroup="_JSON {\"number\": 1, \"setting\": 1}" unit_cell=conventional occupancy="_JSON {\"0\": {\"Li\": 1.0}, \"1\": {\"Li\": 1.0}, \"2\": {\"Li\": 1.0}, \"3\": {\"Li\": 1.0}, \"4\": {\"Li\": 1.0}, \"5\": {\"Li\": 1.0}, \"6\": {\"Li\": 1.0}, \"7\": {\"Li\": 1.0}, \"8\": {\"Li\": 1.0}, \"9\": {\"Li\": 1.0}, \"10\": {\"Li\": 1.0}, \"11\": {\"Li\": 1.0}, \"12\": {\"Li\": 1.0}, \"13\": {\"Li\": 1.0}, \"14\": {\"Li\": 1.0}, \"15\": {\"Li\": 1.0}, \"16\": {\"Li\": 1.0}, \"17\": {\"Li\": 1.0}, \"18\": {\"Li\": 1.0}, \"19\": {\"Li\": 1.0}, \"20\": {\"Li\": 1.0}, \"21\": {\"Li\": 1.0}, \"22\": {\"Li\": 1.0}, \"23\": {\"Li\": 1.0}, \"24\": {\"P\": 1.0}, \"25\": {\"P\": 1.0}, \"26\": {\"P\": 1.0}, \"27\": {\"P\": 1.0}, \"28\": {\"S\": 1.0}, \"29\": {\"S\": 1.0}, \"30\": {\"S\": 1.0}, \"31\": {\"S\": 1.0}, \"32\": {\"S\": 1.0}, \"33\": {\"S\": 1.0}, \"34\": {\"S\": 1.0}, \"35\": {\"S\": 1.0}, \"36\": {\"S\": 1.0}, \"37\": {\"S\": 1.0}, \"38\": {\"S\": 1.0}, \"39\": {\"S\": 1.0}, \"40\": {\"S\": 1.0}, \"41\": {\"S\": 1.0}, \"42\": {\"S\": 1.0}, \"43\": {\"S\": 1.0}, \"44\": {\"S\": 1.0}, \"45\": {\"S\": 1.0}, \"46\": {\"S\": 1.0}, \"47\": {\"S\": 1.0}, \"48\": {\"Cl\": 1.0}, \"49\": {\"Cl\": 1.0}, \"50\": {\"Cl\": 1.0}, \"51\": {\"Cl\": 1.0}}" source=mace_600K frame_in_traj=900 config_type=Li6PS5Cl_md_snapshot energy=-211.5546417236328 stress="0.007256630342453718 0.0014531671768054366 -0.000716661917977035 0.0014531671768054366 0.004994545131921768 0.0010628106538206339 -0.000716661917977035 0.0010628106538206339 0.0110438521951437" free_energy=-211.5546417236328 pbc="T T T"
Li       0.62034110       2.90255420       4.57446562       0.11779684       1.07059628       0.48988848       0.34115869      -0.00664721      -0.37021741      -3.56675959
Li      -7.99162036       0.13833005      12.52241102      -0.03161904       0.03769556       0.06678165      -0.03611194       0.11175560      -0.11810938      -3.44426207
Li       4.62807535       1.86258278       3.00268527      -0.59502314       0.63696594      -0.80798482      -0.20076022       0.07899310       0.17056653      -3.49952562
Li       3.68040999       2.79373437       0.06791307       1.70488600      -1.83531374      -1.04059497      -0.21231589       0.52243882       0.69475794      -3.58608212
Li       4.31971358      -3.47871084      -2.83430354       0.69155956       0.25520127       0.67379760       0.68747538      -0.45016134      -0.28599831      -3.41388761
Li       0.04296225       2.26546633       1.22125036      -0.22471728      -0.35116384      -1.20524878       0.00855565      -0.22885999      -0.00124152      -3.62532084
Li       2.72745581       6.67839638       9.68953553      -0.44500175      -0.85495145       0.20016732       0.01021120      -0.05115357       0.00170772      -3.32237382
Li       9.28662898       6.17384602      13.34740957       0.00639959       0.71435581       0.10333560       0.50695980      -0.47241667       0.39636415      -3.56680927
Li       8.24036013      15.48129846       7.53155702      -0.91110665       0.63656431      -0.11601717       0.09134062      -0.63883913       0.16361849      -3.48851033
Li       5.86027817       6.09821794       1.79899137       0.14106193      -0.10490751      -0.18511380       0.17061397      -0.03111577       0.26452494      -3.62610959
Li       3.04342952       9.66954400       5.97062179       0.50308666      -0.31671071       0.50890583      -0.41541553       0.06220017       0.13818800      -3.65035756
Li       0.32275749       6.76498807       7.85221402      -0.03339929       0.56259863       0.22793044       0.22532579       0.17918110      -0.46543565      -3.45076890
Li      10.48867588       2.78117689       7.85937929      -0.60435901       0.13635607      -0.93788723      -0.36564600      -0.19236846      -0.21271163      -3.50395229
Li       2.32048728       4.90960417      12.44023204      -0.52073789      -0.34042469       0.37569845       0.40779293      -0.08446610       0.24166024      -3.45689446
Li      12.11930292      -3.19272198       4.95194393       0.91596151       0.04121528       0.56284882       0.21582517      -0.41729823       0.48503202      -3.46836819
Li       7.10953155       3.23045411      11.23559281       0.46379063       0.44712624      -0.00352976      -0.43766174       0.04496840      -0.25886610      -3.52381848
Li       8.13460095       0.53744112       8.18310145      -0.84996620      -0.08916399      -0.96110879       0.21446748      -0.25221875       0.17096415      -3.57071291
Li       5.57549649       2.64468477       7.68947032       0.58900413      -0.77538781       0.89311603       0.09291121       0.30286866      -0.19467878      -3.52792972
Li       7.35473882       8.79948468       5.20694982       1.03822000      -0.93646994      -0.30802224      -0.02073100      -0.15316299      -0.18503195      -3.56398435
Li      12.40085907       9.43721088       9.09497787      -0.85196401       0.33266880       0.62274361      -0.22072916       0.38987064       0.04323779      -3.44105515
Li       7.84503272       3.56097606      -4.77068654      -0.65462682       0.19329107       0.44052669       0.02433532       0.01821099      -0.33450571      -3.51966940
Li       7.83643097       8.52426249       0.28350863      -0.99684217      -1.03044432      -0.44162206       0.24602054      -0.05144409       0.43848488      -3.58130930
Li       9.42211618       9.24806169       2.50409852       0.51377923       0.02570376      -0.09521452       0.04796521      -0.12197765      -0.16738975      -3.56440441
Li       5.49457348       8.80474797       3.06795113       0.92735923      -1.76309467      -0.97323026       0.21205685      -0.42853546      -0.67467767      -3.56996457
P        4.93696766      -0.07139091      -0.34986213       2.10610695      -3.31778451       0.74889654       1.64708114       0.32272559       0.75984097      -5.45693994
P        5.27743241       5.13918769       4.76808664      -0.29349938       0.12154548       0.83844596      -0.64097339      -0.46457914       0.78567612      -5.33808005
P       -0.00781574       0.14382604       5.15429353       0.57419580       1.97001151       1.34230751       1.17919207      -0.27895358       0.24026608      -5.64694417
P       -0.11009503       5.52111131       0.20273227       1.67172541      -0.08406445       0.21593343       0.15512037      -0.72528601       0.55296791      -5.63013983
S        1.07593063       4.66180026       8.99797639       0.04342769      -2.78516386       3.32119522       0.35346493       0.09450827       0.50276238      -4.62474737
S        9.09658709       4.31556124       1.57199551       1.66369716      -3.04244177      -1.28512526       0.36198020      -0.06637578      -0.54649615      -4.62188523
S        3.92179407       1.25003574       8.76737784       2.14129312       1.76326157      -0.14945065      -0.17561659      -0.52540284      -0.41240174      -4.87366916
S        6.10491825       0.97388280       1.31930086       1.78739845      -0.12488009       0.49560725      -0.73500848      -0.52653027      -0.86538434      -4.27203351
S        2.17283731       2.57100814       2.13957218      -0.22852573      -2.06406391       0.05787365       0.51325780      -0.33461195       0.17738700      -4.34912863
S        1.35726287       9.12422563       4.06627424      -0.21990312       0.22834771      -0.58516119      -0.58658969       0.46912456      -0.28521192      -4.58897939
S        9.40904513       9.38166550       6.63691204       0.27731325       0.83232019      -0.05582963      -0.62529141      -0.51499766       0.03256479      -4.57089798
S        4.14078257       6.44953088       3.56210325      -0.82417149       0.96030132      -3.18615688       0.02874650      -0.40701777       0.26012260      -4.74011709
S        6.58729064       5.99884889       6.18534358      -0.85125777       1.04043836       0.27657031      -0.51889634       0.46639788      -0.88880152      -4.55103792
S        2.36570999       7.91223259       7.37251310      -1.38825738      -0.58103220      -0.27834849      -0.13323018      -0.36163646       0.37030575      -4.50380501
S        6.14207825       3.72500929       3.39952653       0.45110903       0.53138061       0.17591735      -0.22378469       0.61309373       1.07906115      -4.58585549
S        3.94691933       4.37866421       6.33449243      -0.12148172      -2.18099805       2.14884951       0.76826441       0.14119151      -1.00755978      -4.14240992
S        9.04081306       0.96573882       3.79916595      -1.58775207       1.33865952      -0.15737465      -0.13911831       0.49287230       0.18458107      -4.67141385
S        1.41941378       1.30463714       6.21311223      -0.24010596       0.82486031      -1.85003209      -0.42675433       0.24123091      -0.19974099      -4.53689669
S        8.02534392       2.73176603       7.70674837      -1.10001007       0.48469809      -1.03956642      -0.16656467       0.56260294       0.01740202      -4.21145207
S        6.46201331       9.24445279       8.87187535      -0.15565153       0.71060415       0.58780343      -0.96979493       0.07862959      -0.07469255      -4.52403300
S        3.78608094       8.86314262       0.66386345      -0.27263688       0.78768120      -1.60320847      -0.28771612      -0.06819817       0.12063932      -4.84903963
S        8.80695597       6.49672114       9.38559491      -1.87251200      -0.08311295       1.25259501      -0.66849899       0.76149160      -0.16057220      -4.67018786
S        0.99942442       6.72078442       1.47729136      -1.15623145       0.61037524       3.11475851      -0.07547650       0.08533771      -0.43127352      -4.64985175
S        7.63673891       7.56002256       2.80421445      -0.03401492       3.75263798      -1.01534104      -0.73208386       1.21831441      -0.25417188      -4.20921409
Cl      -0.43098089       0.07077661       0.14909976      -1.71579821      -0.71699659      -1.56831660       0.14612857      -0.15857159       0.12023033      -3.50678444
Cl      -0.25436151       4.98567890       5.31255124       0.87193875       1.65796860      -0.55362055      -0.04349234       0.23255071      -0.06038123      -3.64257902
Cl       4.92579479      -0.40769285       4.85697563      -1.40201086       0.92230166       2.08904817       0.55804878       0.51341707       0.12285933      -3.52152103
Cl       5.00241749       4.83335213      -0.01697077       0.98207179      -0.24916179      -1.42843563      -0.15603869       0.00885040      -0.08022178      -3.53202260
52
Lattice="10.279498 0.0 0.0 0.0 10.279498 0.0 0.0 0.0 10.279498" Properties=species:S:1:pos:R:3:momenta:R:3:forces:R:3:energies:R:1 spacegroup="_JSON {\"number\": 1, \"setting\": 1}" unit_cell=conventional occupancy="_JSON {\"0\": {\"Li\": 1.0}, \"1\": {\"Li\": 1.0}, \"2\": {\"Li\": 1.0}, \"3\": {\"Li\": 1.0}, \"4\": {\"Li\": 1.0}, \"5\": {\"Li\": 1.0}, \"6\": {\"Li\": 1.0}, \"7\": {\"Li\": 1.0}, \"8\": {\"Li\": 1.0}, \"9\": {\"Li\": 1.0}, \"10\": {\"Li\": 1.0}, \"11\": {\"Li\": 1.0}, \"12\": {\"Li\": 1.0}, \"13\": {\"Li\": 1.0}, \"14\": {\"Li\": 1.0}, \"15\": {\"Li\": 1.0}, \"16\": {\"Li\": 1.0}, \"17\": {\"Li\": 1.0}, \"18\": {\"Li\": 1.0}, \"19\": {\"Li\": 1.0}, \"20\": {\"Li\": 1.0}, \"21\": {\"Li\": 1.0}, \"22\": {\"Li\": 1.0}, \"23\": {\"Li\": 1.0}, \"24\": {\"P\": 1.0}, \"25\": {\"P\": 1.0}, \"26\": {\"P\": 1.0}, \"27\": {\"P\": 1.0}, \"28\": {\"S\": 1.0}, \"29\": {\"S\": 1.0}, \"30\": {\"S\": 1.0}, \"31\": {\"S\": 1.0}, \"32\": {\"S\": 1.0}, \"33\": {\"S\": 1.0}, \"34\": {\"S\": 1.0}, \"35\": {\"S\": 1.0}, \"36\": {\"S\": 1.0}, \"37\": {\"S\": 1.0}, \"38\": {\"S\": 1.0}, \"39\": {\"S\": 1.0}, \"40\": {\"S\": 1.0}, \"41\": {\"S\": 1.0}, \"42\": {\"S\": 1.0}, \"43\": {\"S\": 1.0}, \"44\": {\"S\": 1.0}, \"45\": {\"S\": 1.0}, \"46\": {\"S\": 1.0}, \"47\": {\"S\": 1.0}, \"48\": {\"Cl\": 1.0}, \"49\": {\"Cl\": 1.0}, \"50\": {\"Cl\": 1.0}, \"51\": {\"Cl\": 1.0}}" source=mace_800K frame_in_traj=100 config_type=Li6PS5Cl_md_snapshot energy=-210.9913330078125 stress="0.005009369924664497 -0.0005332015571184456 -0.0003370233753230423 -0.0005332015571184456 -0.0005614985711872578 -0.0005887498846277595 -0.0003370233753230423 -0.0005887498846277595 0.0023895641788840294" free_energy=-210.9913330078125 pbc="T T T"
Li       5.07073402       2.91163473       2.18885459      -0.17831400       0.62360002       0.34331387      -0.41418284      -0.17458670      -0.35621589      -3.35224131
Li       2.56546399       0.56349704       2.31875434      -0.41849071       0.56115622       0.33922991       0.04581591      -1.03570354      -0.07216053      -3.39674838
Li       0.53852604       2.04397983       1.46562303       1.51574990      -0.64226723      -0.17029416      -0.04990643       0.34860289       0.16751158      -3.58604644
Li       1.57465008       3.13889822       4.79863150       0.33504798       1.12867097      -0.37445862      -0.19098279       0.37271583       0.01420119      -3.53125550
Li       4.24757661       1.90112805       4.60862154      -0.12353254       0.92711904       0.18729360      -0.19830209       0.17836320      -0.12532566      -3.52146156
Li       2.81697546       5.03294356       1.94967752       0.41012609      -0.04694191      -0.04638300      -0.28345099      -0.22462556      -0.23554918      -3.49809140
Li       5.35089389       7.94458330       7.34125277       0.13656088       0.82905388      -1.60252738      -0.15785775       0.11788924      -0.72499955      -3.24166456
Li      -3.08231605      13.88371551       9.83747062      -0.87508189       0.36496003      -1.06073960       0.08479777      -0.21451117       0.10798684      -3.32808866
Li       4.36680226       7.55595564       9.46557386      -0.46590268      -0.47018585       0.35485542      -0.56338555       0.00068190       0.55805874      -3.44774523
Li       3.18071788      10.28671131       7.30791210       0.62373549       0.48771982      -0.25221899       0.01510474      -0.13190962      -0.32216448      -3.57097001
Li       0.39260068       8.75671296       8.86579118       0.36336985      -0.75077270      -0.63098218       0.25328958      -0.22635949      -0.11845729      -3.57885770
Li       1.87412337       7.34295106       5.26367662      -1.11854602       0.47946948       1.25344738       0.00729078       0.58790231      -0.25514725      -3.56626177
Li      10.14349824      -2.84691967       2.64872072       0.55634991       0.58930723       1.11856654      -0.13912281      -0.02248735       0.42867064      -3.48775965
Li       8.01231504       2.37034853       5.21124699      -0.42670086      -0.72472365       0.31879880      -0.39195418       0.23701696       0.44761395      -3.55479315
Li       6.64238152       0.22639095       7.12104496       0.22245238      -0.61093887      -1.06635580       0.23450258       0.49549228       0.13290012      -3.59536828
Li       5.20374453       3.60317751       8.08368535       0.51593375       0.46349037      -0.08360656      -0.49484390      -0.39745545      -0.08436564      -3.44055062
Li       7.69062181      -4.98722210      13.08605675      -1.33104115       0.70200393       0.55222127       0.09606934      -0.27148855       0.01562640      -3.47252509
Li       9.60333501       2.23438449       8.49237335      -0.93671575      -0.89395581      -0.25961447      -0.56690562      -0.73841745      -0.05224883      -3.56070498
Li      13.00212346       5.90219325       7.01479697       1.01681402      -0.81801152      -0.32744773      -0.19685805      -1.20764697       0.22537103      -3.24239099
Li       8.51053628       7.38228164       5.23019231      -0.94733316       0.49865999      -0.07101976      -0.04609705      -0.19477615      -0.32074276      -3.66427536
Li       7.31757519       4.87406018       7.64572297      -0.56599118       0.23855270       0.90961204       0.31135088      -0.14185306      -0.52987218      -3.31738196
Li       5.58688385       8.98373446       3.04944174       0.04554424       0.42465224       0.16603574       0.15149200      -0.13453990       0.16365317      -3.68820398
Li       7.70999049       7.21139732       0.38426118      -0.56296466       0.42384472       0.69691354      -0.23898681       0.29825664       0.45933414      -3.44448803
Li       8.53465556      10.01292973       1.91624270       0.39137228       0.27012764       0.04031373      -0.04492425      -0.03100064       0.09154208      -3.59312020
P        5.27531913       0.01849488       0.10937084      -1.03273885       0.11336765      -0.58540126      -0.03018759      -0.40946442       1.11152911      -5.82821715
P        4.94960955       5.02110727       4.73220757      -3.18483322      -0.75761341       2.27527571      -0.10646604       0.36368155       0.83113241      -5.26733148
P        0.08357195       0.31193178       5.18363938       0.48962804       3.04025180       0.88495613      -0.00144974      -0.33044031      -1.12053657      -5.73723185
P       -0.09051724       5.01246784      -0.33982751      -0.05998342       1.00096452      -0.20097603      -0.22413924      -0.33023176       0.17256336      -6.10951191
S        0.77454862       3.87243366       8.53388652       3.33261750       1.73705821      -0.99139251       1.30771136       0.58064461      -0.03663730      -4.24584091
S        9.14729640       3.80862573       0.97261978      -0.28270085      -2.89915832       0.10153103      -0.10604208      -0.40339863       0.81840920      -4.51093748
S        4.17671546       1.07213600       9.14763307      -1.31780387      -0.56815162       0.91714994      -0.31563479       0.98929775      -0.36251524      -4.45594168
S        6.49120727       1.04792369       1.44390420       2.03408597      -0.66663885      -1.60685266      -0.31657776       0.17503259      -0.12836933      -4.55064265
S        2.62486959       2.64066882       2.82829945      -0.48701319       0.48157547       0.09252982       0.53061932       0.90922809      -0.67239308      -4.37966663
S        1.34521219       9.41548340       3.96455675       0.18797829       2.83681057       3.28449955      -0.49329999      -0.29297435       0.01564860      -4.46271047
S        8.92220268       9.54026266       6.20142177       0.66750438      -0.72011261       0.97257149       0.32234976       0.08130656       0.30060220      -4.52509795
S        3.68006091       6.33397481       3.69559462      -2.72418209      -0.89692248      -1.45614394       0.82994950      -0.45767486       0.57047117      -4.62776887
S        6.36869701       6.09733067       6.02428482       0.65683538      -1.55437680      -1.41855483      -0.84777921       0.27080730      -0.34845024      -4.53557809
S        2.80755657       8.05419294       7.46461386      -0.97450355       1.11136582       1.51313348       0.33278245      -0.00369398       0.55073035      -4.40541476
S        6.25193935       3.56200282       4.03628381      -1.32846186       0.50082283       1.89644686       0.05599681       0.34394762      -0.60691553      -4.85793470
S        3.78901769       3.73629897       6.01632116      -0.73264138       1.05532890      -1.97199602       0.06610449       0.99375904       0.19074331      -4.74121399
S        9.40438014       1.52633552       3.69333650      -0.37385366      -0.76966986      -0.75637181       0.51079953      -0.48839986       0.18968689      -4.53168683
S        1.41270142       1.33586830       6.30916513       0.80562534      -3.19673733       0.50699073      -0.33074045       0.12106549       0.50344586      -4.59264962
S        7.28734002       2.60959579       7.44697129       1.04146764      -0.66630649       2.67549141       0.14456743      -0.15806343       0.85945392      -4.35360527
S        6.62858563       9.13516643       9.38222371      -0.54955831      -1.86559177      -1.11420163      -0.06433615      -0.76160979      -0.64628220      -4.70976281
S        3.90382374       9.12691213       1.26895100       0.97024666      -1.79190947       0.11798675       0.57505918       0.09457012      -0.51629275      -4.49738194
S        8.66690772       5.95177476       9.02085043       1.64327020      -1.00368190       0.51557599      -0.80210483       1.20182323      -0.80505824      -4.37051243
S        0.79361690       6.55459318       0.62231603       1.24652713      -0.07320019       0.51428431       1.16468525       0.27772725       0.30477026      -4.44983374
S        7.69959851       7.60013097       2.86654295       2.07840183      -1.15693232      -2.09655489       0.36316323       0.45782733      -0.57967758      -4.36017412
Cl      -0.17508352       0.30823311       0.03713831       1.17657398      -1.07720338      -3.37402449       0.01860581      -0.03175579      -0.10296944      -3.52446920
Cl       0.14958042       5.86290150       5.02171396       0.84944121       0.26159467      -1.42915467       0.01141641      -0.03300582      -0.13132873      -3.46596432
Cl       5.16108190      -0.06011809       5.27641551       0.04766359       1.41949260      -0.42807427       0.05070476      -0.29675457       0.16586487      -3.63009655
Cl       5.10707012       5.29375417      -0.19591236      -2.36203595       2.05098160       0.82632461       0.13229041      -0.35281059      -0.14284642      -3.58301383
52
Lattice="10.279498 0.0 0.0 0.0 10.279498 0.0 0.0 0.0 10.279498" Properties=species:S:1:pos:R:3:momenta:R:3:forces:R:3:energies:R:1 spacegroup="_JSON {\"number\": 1, \"setting\": 1}" unit_cell=conventional occupancy="_JSON {\"0\": {\"Li\": 1.0}, \"1\": {\"Li\": 1.0}, \"2\": {\"Li\": 1.0}, \"3\": {\"Li\": 1.0}, \"4\": {\"Li\": 1.0}, \"5\": {\"Li\": 1.0}, \"6\": {\"Li\": 1.0}, \"7\": {\"Li\": 1.0}, \"8\": {\"Li\": 1.0}, \"9\": {\"Li\": 1.0}, \"10\": {\"Li\": 1.0}, \"11\": {\"Li\": 1.0}, \"12\": {\"Li\": 1.0}, \"13\": {\"Li\": 1.0}, \"14\": {\"Li\": 1.0}, \"15\": {\"Li\": 1.0}, \"16\": {\"Li\": 1.0}, \"17\": {\"Li\": 1.0}, \"18\": {\"Li\": 1.0}, \"19\": {\"Li\": 1.0}, \"20\": {\"Li\": 1.0}, \"21\": {\"Li\": 1.0}, \"22\": {\"Li\": 1.0}, \"23\": {\"Li\": 1.0}, \"24\": {\"P\": 1.0}, \"25\": {\"P\": 1.0}, \"26\": {\"P\": 1.0}, \"27\": {\"P\": 1.0}, \"28\": {\"S\": 1.0}, \"29\": {\"S\": 1.0}, \"30\": {\"S\": 1.0}, \"31\": {\"S\": 1.0}, \"32\": {\"S\": 1.0}, \"33\": {\"S\": 1.0}, \"34\": {\"S\": 1.0}, \"35\": {\"S\": 1.0}, \"36\": {\"S\": 1.0}, \"37\": {\"S\": 1.0}, \"38\": {\"S\": 1.0}, \"39\": {\"S\": 1.0}, \"40\": {\"S\": 1.0}, \"41\": {\"S\": 1.0}, \"42\": {\"S\": 1.0}, \"43\": {\"S\": 1.0}, \"44\": {\"S\": 1.0}, \"45\": {\"S\": 1.0}, \"46\": {\"S\": 1.0}, \"47\": {\"S\": 1.0}, \"48\": {\"Cl\": 1.0}, \"49\": {\"Cl\": 1.0}, \"50\": {\"Cl\": 1.0}, \"51\": {\"Cl\": 1.0}}" source=mace_800K frame_in_traj=200 config_type=Li6PS5Cl_md_snapshot energy=-209.74061584472656 stress="-0.004055805969983339 0.003858454991132021 0.0003082159091718495 0.003858454991132021 0.004336151760071516 0.002814203267917037 0.0003082159091718495 0.002814203267917037 0.00024727414711378515" free_energy=-209.74061584472656 pbc="T T T"
Li       4.35183639       2.56267859       2.83625919       0.22864603       0.70677296       0.31941701       1.51847744      -0.05883914       0.43463656      -3.39178886
Li       1.95140212       0.44776205       1.79974108       0.05805121       0.62498688      -0.18260548      -0.01266838      -0.24056493       0.27404603      -3.55538288
Li       1.81054547       2.09068179      -0.29809489      -1.29227438      -0.61071763       0.96472199      -0.12766707       0.15522915       0.22380793      -3.37528701
Li       1.66747878       3.43534479       5.43084868       0.29079918      -1.23604474      -1.37924313       0.02529523      -0.13471365       0.06444091      -3.42947201
Li       2.80669534       4.85453752       0.60708957       0.99596009       0.31880968       0.09064665       0.87432492      -0.66692805       0.34978190      -3.40325984
Li       0.39788664       4.15184907       2.46873023      -1.31328990      -0.27988063       1.43373276       0.10049398      -0.23063055      -0.08856421      -3.54381612
Li       1.47264538       9.95078318       7.91008592       0.15707664      -0.63943549       0.31235904      -0.04966187      -0.23293950       0.26636744      -3.48187551
Li      -4.61364447      12.36719376       5.96395177      -0.67786811       0.08888400       0.54418598      -0.05190022       0.79418528      -0.40714088      -3.59144734
Li       2.97328566       7.69870035       5.04183649       0.18419067      -0.28605034      -0.22939803      -0.30398193       0.44848639       0.69928408      -3.55454808
Li       4.44236211       9.48163257       7.81736734       0.92318464       0.69564025      -0.20769903       0.15039048      -0.25709558      -0.12235153      -3.69174288
Li       2.19290931       8.13475117       9.89212484      -0.17999995       1.73741057      -0.43038229       0.11188827       0.08985202       0.17001782      -3.49706551
Li       0.14775257       6.57776731       6.76019047       0.17536302      -1.05823402      -0.79721098       0.48576027       0.08615112       0.20059320      -3.56216413
Li       9.85212986      -2.57777119       0.87510299       0.30508264       0.07938311      -0.93922165      -1.04187429       0.67893386       0.28407517      -3.45331980
Li       8.35251121       3.68730427       5.88674792       0.42203508      -0.95202295      -0.37610964      -0.46850672      -0.37119243      -0.40785587      -3.45380089
Li       7.56315700       0.75100321       9.19193782      -0.51483676      -1.41102451       0.14203493      -0.03853600       0.16642673      -0.26180717      -3.29837620
Li       5.49644526       3.18700670       9.48698995      -0.31069199      -0.28623459      -0.72601349       0.05420539      -0.36178428      -0.01769760      -3.39918361
Li       5.41552816      -1.70366867      13.24756455       0.43896581       1.15434486      -0.84821696       0.56254780      -0.07911669       0.12939711      -3.56065215
Li       6.90405788       5.17780160       8.29743380      -0.47091610       1.79554253      -0.00294710       0.04889600      -0.05079741      -0.39735627      -3.37255175
Li      14.06982614       5.43935250       8.13411141       0.57252737      -0.17949835       0.69362954      -0.34715843       1.03317046       0.44813955      -3.42884785
Li       7.34744172       7.03616533      -0.00903314      -0.35678135       0.42263130      -0.01907846      -0.37896693      -0.16868086       0.87030518      -3.49866568
Li       9.28685659       2.78487479       8.33842989       0.38018498      -0.37577219      -0.08168783       0.03805014      -0.37693331      -0.58898908      -3.35002968
Li       7.37908929       8.88932322       4.93017844       0.69329107      -0.38611995      -0.84930400      -0.24053876       0.52527136      -0.18888792      -3.54798254
Li       8.53147115      10.19420094       1.68324585       0.03734262       0.49069475       0.04925310      -0.17264056      -0.22895245       0.55997002      -3.55523947
Li       8.43386897       6.60175943       4.51167244      -0.19095656       0.11749776      -0.07195249      -0.14845046       0.29877481      -0.40574852      -3.55473018
P        5.04147567      -0.12698851       0.27496672      -0.18252809       0.15966657      -1.60997294       0.48283523       0.47050515       0.64161783      -5.74595451
P        5.46214168       5.47509122       4.92710144       2.07461817      -1.86570508      -0.05481231       0.56436169       0.61335921      -0.15153423      -6.13961148
P        0.05560879      -0.22730623       5.15884745       0.11492442       0.93156388       1.68700631      -3.20152760       1.61428678       2.99696493      -5.61770463
P        0.26440435       4.99214587      -0.57724189      -0.49040732      -0.83492746       1.09143138      -1.05774379      -0.06549720      -0.18158215      -5.14270210
S        1.63854637       4.15572309       8.41623806       0.55049586       0.17527809       0.58902560      -0.17928998       0.33896238       0.50794870      -4.80069031
S        9.43018461       3.28658128       0.24785807      -1.16576460       0.34625102       2.33442452       0.60268843       0.97683346       0.16533487      -4.45154786
S        3.95846916       1.10696548       9.26841987       2.12804590      -1.86923808       0.28231352       0.03933017       0.02071045       0.11983304      -4.71861367
S        6.13394311       0.93352321       1.71363111      -1.89211867       1.43170578       0.28148020      -0.29008195       0.32760495      -0.59218496      -4.42630285
S        2.39348988       2.71725212       2.06510750       0.14740443       0.25374032       1.56082558      -1.23939705       0.75654101      -0.55559105      -4.24974370
S        1.38710714       9.55147197       3.95098353      -0.79124057       1.15155835      -1.18509305       3.07526302      -1.56378877      -2.11187887      -4.59567260
S        9.25220272       8.50694911       6.25506391      -0.13559650      -1.01367613       0.76955165       0.67559302       0.90656173      -0.51546502      -4.42067033
S        4.33304809       6.54473176       3.63250510       1.35249043       0.22721882      -1.29586138      -0.16315871      -0.13819857      -0.70211118      -4.35788450
S        6.59817348       6.79800649       6.07004053      -0.13515227      -1.44555232      -2.18224362       0.12025256      -0.51860076       0.03785344      -4.45116363
S        2.64886582       7.97657188       7.62358392       2.38581033       1.54618718       1.41659973      -0.05271557      -0.70397973      -0.26428074      -4.06230950
S        6.44648210       3.88366218       4.12132557       1.15925165      -2.39053048       0.60302570       0.32712281      -0.25884986      -0.37439221      -4.38686040
S        4.20809837       4.60434597       6.18267601       0.47508647       0.36284623       1.87685919      -1.43314350      -1.47686720       0.54681426      -4.37601084
S        8.94449164       0.87248657       4.15441089      -0.29670186      -0.96865443      -0.84200235      -0.39630550       0.08714202      -0.10257484      -4.19443095
S        0.68380283       1.39023059       6.67817566       0.02924861       0.49252904      -0.07314672      -0.26564246      -0.09455457      -0.65194643      -4.33680987
S        6.97140383       2.59334556       7.65130708      -0.41860455      -0.91358229      -0.17042207       1.00160432       0.79501760       1.10949850      -4.50670560
S        6.42791559       8.97364168       9.59500078       1.09615012       1.98963894      -0.96363465      -0.37847441       0.65209943      -0.80375838      -4.52920842
S        3.83643092       9.01009712       1.41980298       0.48233815       0.16500469      -2.27408808      -1.01114297      -0.13236094      -0.45655301      -4.54695922
S        9.08283874       6.44293312       8.79351948      -0.64009957       0.94117370       0.32899571       0.60518438      -1.01411033       0.57101542      -4.63353126
S        1.12251785       6.23278075       0.88062842      -1.53831541      -1.62604097       0.75439975       0.18118438      -0.63156092       0.06690562      -4.91161640
S        7.68878969       7.92122734       2.44263277      -3.50515481      -0.65421826      -0.18072665       0.81543100      -0.16218261      -0.06250304      -3.89440084
Cl       0.31843649      -0.44456549       0.20168863       0.25823973      -0.19732661      -0.35209537       0.14026178       0.22038071      -0.23923020      -3.79692876
Cl      -0.25089448       5.00475842       4.87979605       0.56847095       2.65298814       0.53352269       0.51247323      -0.28878093      -0.00983089      -3.77641249
Cl       5.17303131       0.02755969       5.84756956      -1.71488932       1.46103606       1.20826773      -0.00791948      -0.86381793      -0.62281692      -3.39563811
Cl       5.22748989       5.60889212      -0.17106546      -0.47108724      -1.04049924      -1.54254218      -0.05482183      -0.68416703      -0.45401639      -3.72320902
52
Lattice="10.279498 0.0 0.0 0.0 10.279498 0.0 0.0 0.0 10.279498" Properties=species:S:1:pos:R:3:momenta:R:3:forces:R:3:energies:R:1 spacegroup="_JSON {\"number\": 1, \"setting\": 1}" unit_cell=conventional occupancy="_JSON {\"0\": {\"Li\": 1.0}, \"1\": {\"Li\": 1.0}, \"2\": {\"Li\": 1.0}, \"3\": {\"Li\": 1.0}, \"4\": {\"Li\": 1.0}, \"5\": {\"Li\": 1.0}, \"6\": {\"Li\": 1.0}, \"7\": {\"Li\": 1.0}, \"8\": {\"Li\": 1.0}, \"9\": {\"Li\": 1.0}, \"10\": {\"Li\": 1.0}, \"11\": {\"Li\": 1.0}, \"12\": {\"Li\": 1.0}, \"13\": {\"Li\": 1.0}, \"14\": {\"Li\": 1.0}, \"15\": {\"Li\": 1.0}, \"16\": {\"Li\": 1.0}, \"17\": {\"Li\": 1.0}, \"18\": {\"Li\": 1.0}, \"19\": {\"Li\": 1.0}, \"20\": {\"Li\": 1.0}, \"21\": {\"Li\": 1.0}, \"22\": {\"Li\": 1.0}, \"23\": {\"Li\": 1.0}, \"24\": {\"P\": 1.0}, \"25\": {\"P\": 1.0}, \"26\": {\"P\": 1.0}, \"27\": {\"P\": 1.0}, \"28\": {\"S\": 1.0}, \"29\": {\"S\": 1.0}, \"30\": {\"S\": 1.0}, \"31\": {\"S\": 1.0}, \"32\": {\"S\": 1.0}, \"33\": {\"S\": 1.0}, \"34\": {\"S\": 1.0}, \"35\": {\"S\": 1.0}, \"36\": {\"S\": 1.0}, \"37\": {\"S\": 1.0}, \"38\": {\"S\": 1.0}, \"39\": {\"S\": 1.0}, \"40\": {\"S\": 1.0}, \"41\": {\"S\": 1.0}, \"42\": {\"S\": 1.0}, \"43\": {\"S\": 1.0}, \"44\": {\"S\": 1.0}, \"45\": {\"S\": 1.0}, \"46\": {\"S\": 1.0}, \"47\": {\"S\": 1.0}, \"48\": {\"Cl\": 1.0}, \"49\": {\"Cl\": 1.0}, \"50\": {\"Cl\": 1.0}, \"51\": {\"Cl\": 1.0}}" source=mace_800K frame_in_traj=300 config_type=Li6PS5Cl_md_snapshot energy=-210.58616638183594 stress="0.00010550854494795203 0.0019118255004286766 0.0010589560260996222 0.0019118255004286766 0.002357050310820341 0.0018829575274139643 0.0010589560260996222 0.0018829575274139643 0.0014593686209991574" free_energy=-210.58616638183594 pbc="T T T"
Li       2.05941982       3.21922621       4.77832701       0.35443892       0.29011755      -0.70737430       0.19979803       0.26509503      -0.36973393      -3.57496376
Li       4.13276777       3.98249858       2.22367998      -0.55714815      -0.18376987       0.47717778       0.20349580       0.34505218      -0.17626335      -3.53175049
Li       2.13130371       1.65491575      -0.08630315       0.43017199      -0.12730171       0.10726813       0.20448056       0.25530586       0.42754498      -3.50741442
Li       3.02046522       0.06746795       2.89611680      -1.29198762       1.48731715      -0.59108615      -0.35910672       0.68520755       0.20293869      -3.54619318
Li      -0.13991532       2.78036920       2.86143376       0.30726523       0.08553033       1.81253245       0.42646357      -0.06851196      -0.21005879      -3.54309188
Li      -2.15740192       5.69066567       3.18672312       0.04093578      -0.25085838      -1.41491948       0.36780581      -0.04824339       0.01902051      -3.41648242
Li       2.92318350      10.15839517       6.69522461       0.88335899       0.84781298      -0.59526207      -0.19084169       0.05243022       0.42592910      -3.61359631
Li      -3.68245056      10.68635646       7.37612287       0.53302564      -0.96991952       0.82296960       0.05150227      -0.04017968       0.25326490      -3.33936732
Li       5.12305334       7.07064147       8.91641617       0.96365987       0.71877785      -0.54388603      -0.45172870       0.35061985      -0.76446080      -3.60261469
Li       2.30640754       5.31320241       7.61762295      -0.88653451      -0.32232115       1.41603982       0.00118181       0.15342523      -0.03052090      -3.52212603
Li       1.79070302       8.62493832       9.45933299       0.22981373       0.90583733       0.14540310       0.35522497      -0.30317473       0.06987907      -3.45825668
Li       0.78956136       7.66379413       6.23654610      -1.20188428      -0.68828240      -0.14976629       0.36009675      -0.45755333      -0.21712074      -3.57904233
Li      10.44031147      -2.61959584       1.89965870       0.78231194       0.77391294       0.00867867      -0.13111934      -0.05612573      -0.01195635      -3.48924282
Li       6.61580964       2.94522368       5.55524798      -0.31177079       0.31348854      -0.17289242       0.14584988      -0.06073992       0.17171732      -3.47478621
Li       9.27414741       1.72517529       8.98126335      -0.51682047      -0.63143379      -1.25361249       0.46540952      -0.29110256       0.22244608      -3.43513416
Li       7.35147345       3.99865471       9.86996759       1.14822510       0.59913806      -0.64525312       0.17421186      -0.02621560      -0.25918779      -3.56754158
Li       5.41942836      -1.28689919      13.51504792       0.24032059       0.84677451       0.88437263       0.20783526      -0.36984697      -0.16421121      -3.41637456
Li       5.35113394       3.04188127       8.61747178       0.66044087      -0.95740634       0.73453654       0.30860090       0.48058203      -0.37450361      -3.50630422
Li      14.30442928       7.88650804       5.75312485       0.18425415      -0.13036664      -0.09850606       0.49679506       0.07271658      -0.53942096      -3.52994384
Li       9.01883170       8.21650259      -1.20308040       0.50700198       0.57622647       0.97373613      -0.10667950      -0.01752385       0.00158227      -3.53920305
Li       9.50316824       4.07834539       6.94507907      -0.04978503       0.18462309      -0.71445700      -0.21964258      -0.36676484       0.58962590      -3.59595244
Li       8.16951212       9.08882764       4.41252060       0.46722000       1.17804560      -0.04562637       0.02572164      -0.09684035       0.44323403      -3.34105079
Li       8.09563091       9.41142803       1.21508923      -0.76750796      -0.72646380      -0.44124354      -0.10618651       0.71546388      -0.53103024      -3.45806006
Li       5.84665158       6.86108222       1.47543732      -1.33247637      -0.17007771      -0.84361507      -0.19987567      -0.16122256       0.02324609      -3.44459462
P        5.36071202       0.02461211      -0.01741563      -1.96769419      -2.47353614      -1.25355071       1.25280750       1.06268847      -0.49330485      -5.30179739
P        5.21348762       5.49474047       4.87201003       3.60784060       0.07683721       1.53719256       0.18241927       1.29160416      -0.22079614      -5.88381171
P        0.02875203       0.25520412       5.40430868       2.00320741      -1.80881279       2.35334879       1.43667006      -0.16592693       2.26515436      -5.63177669
P       -0.07717341       5.01150649      -0.13045519      -0.30128720      -0.47614669      -1.67674688       1.30859029      -1.17060363       1.92566729      -5.79865038
S        0.80175113       3.42622573       9.18746604      -0.62384112      -1.27978160      -0.66161775       0.11445020      -0.28841767      -0.76372230      -4.56013756
S        8.83642799       4.14097718       1.35092807      -0.69919080      -0.80521524      -1.62066684       0.70595127       0.35386911       0.04006667      -4.49205469
S        4.15150820       1.20815293       8.78463536      -0.97115310      -2.18372596      -2.15069423       0.26071626      -1.06733656       0.46370724      -4.63570768
S        6.70988702       1.22249929       1.12832454       0.34327636      -1.91786135       1.48535202      -0.97221458      -0.79915214      -0.73574376      -4.34155247
S        2.37021618       2.56862346       2.21392461      -1.10517871       0.93432186       0.47229332      -0.56651032      -0.76887196       0.63069761      -3.88228917
S        0.84158807       9.28864605       4.06664744       1.54696772       2.14691570      -2.24131961       0.63725114      -0.68847066      -0.43811518      -4.54873250
S        9.66930358       9.23264444       7.08517144       0.42815812       0.02514921       0.35058339      -0.30617070       0.95515227      -0.97786427      -4.20425612
S        4.03338719       6.68035342       3.59255112      -2.28759374       1.31703243       2.19707191      -0.07783240      -0.24415711       0.00380174      -4.38688922
S        6.36238069       6.83122888       5.91386572      -1.40094762       2.59671346      -0.52536287      -0.03150406      -0.05389876       0.19312568      -4.18913096
S        2.85881228       7.76874406       7.57989406       1.75333986      -2.72920817       0.06092575      -0.36520177      -0.23070106       0.46648347      -4.38686514
S        6.29590657       4.39187137       3.58158811       1.03139513       0.47327427       2.93137218       0.33292875      -0.88738739      -0.58363152      -4.67011088
S        4.37065894       4.14610825       6.08952936      -1.39890771      -0.55754295      -0.07929309      -0.89287841      -0.58590740       0.59814215      -4.59118580
S        8.92295975       1.30789552       4.56034069      -0.43751439       0.35122770       1.53136683      -1.88537216       1.03259289      -1.04013753      -4.64463647
S        1.27460878       1.72356524       6.35295470      -1.99893240      -0.57550916       0.14922945      -0.31164241      -1.06108379      -0.14545056      -4.33699840
S        7.65381103       2.60224768       7.75097599      -0.25998650      -0.98729792      -1.82550824      -0.90926969       0.18456328      -0.32714689      -4.43186122
S        6.67549233       8.77337419       9.27607778       1.86632133      -0.25674266      -0.35714834      -0.60898721       0.82793158       0.29103842      -4.57332403
S        3.97108057       9.29224576       0.97158145       1.57760162      -0.03481828       0.37753382      -0.40781617      -0.68698025       0.51803070      -4.91390966
S        8.97376834       5.84891689       8.89390862       0.16267317       0.59470152       2.94881039      -0.98035425       1.08662581      -1.25733566      -4.59701331
S        1.62251626       5.88259217       0.63355285       2.16342589       2.36753373      -1.35361798      -0.82897466       0.69292319       0.03836120      -4.24606866
S        7.65596583       7.83758498       2.60046129      -1.41099127       1.07390506      -1.67104247      -0.00812342      -0.23148176       0.07152089      -4.54675765
Cl      -0.03969383      -0.83551761       0.29532966      -1.15199821       0.50101067       0.17374549       0.07023142       0.20930479       0.17413960      -3.82320607
Cl       0.41672347       5.09882880       5.40121499      -2.81395277       0.66554751       3.30232870       0.29873481       0.42318571      -0.20447499      -3.50899589
Cl       4.39822490      -0.15611671       4.99017163      -0.64447397      -1.01436521      -1.90644997       0.37394616       0.12286270      -0.24334762      -3.72620070
Cl       5.29565152       5.10038042      -0.38183017       2.17290742       0.32699224      -1.71334980      -0.05113730      -0.32477981       0.54917419      -3.69906914
52
Lattice="10.279498 0.0 0.0 0.0 10.279498 0.0 0.0 0.0 10.279498" Properties=species:S:1:pos:R:3:momenta:R:3:forces:R:3:energies:R:1 spacegroup="_JSON {\"number\": 1, \"setting\": 1}" unit_cell=conventional occupancy="_JSON {\"0\": {\"Li\": 1.0}, \"1\": {\"Li\": 1.0}, \"2\": {\"Li\": 1.0}, \"3\": {\"Li\": 1.0}, \"4\": {\"Li\": 1.0}, \"5\": {\"Li\": 1.0}, \"6\": {\"Li\": 1.0}, \"7\": {\"Li\": 1.0}, \"8\": {\"Li\": 1.0}, \"9\": {\"Li\": 1.0}, \"10\": {\"Li\": 1.0}, \"11\": {\"Li\": 1.0}, \"12\": {\"Li\": 1.0}, \"13\": {\"Li\": 1.0}, \"14\": {\"Li\": 1.0}, \"15\": {\"Li\": 1.0}, \"16\": {\"Li\": 1.0}, \"17\": {\"Li\": 1.0}, \"18\": {\"Li\": 1.0}, \"19\": {\"Li\": 1.0}, \"20\": {\"Li\": 1.0}, \"21\": {\"Li\": 1.0}, \"22\": {\"Li\": 1.0}, \"23\": {\"Li\": 1.0}, \"24\": {\"P\": 1.0}, \"25\": {\"P\": 1.0}, \"26\": {\"P\": 1.0}, \"27\": {\"P\": 1.0}, \"28\": {\"S\": 1.0}, \"29\": {\"S\": 1.0}, \"30\": {\"S\": 1.0}, \"31\": {\"S\": 1.0}, \"32\": {\"S\": 1.0}, \"33\": {\"S\": 1.0}, \"34\": {\"S\": 1.0}, \"35\": {\"S\": 1.0}, \"36\": {\"S\": 1.0}, \"37\": {\"S\": 1.0}, \"38\": {\"S\": 1.0}, \"39\": {\"S\": 1.0}, \"40\": {\"S\": 1.0}, \"41\": {\"S\": 1.0}, \"42\": {\"S\": 1.0}, \"43\": {\"S\": 1.0}, \"44\": {\"S\": 1.0}, \"45\": {\"S\": 1.0}, \"46\": {\"S\": 1.0}, \"47\": {\"S\": 1.0}, \"48\": {\"Cl\": 1.0}, \"49\": {\"Cl\": 1.0}, \"50\": {\"Cl\": 1.0}, \"51\": {\"Cl\": 1.0}}" source=mace_800K frame_in_traj=400 config_type=Li6PS5Cl_md_snapshot energy=-210.01980590820312 stress="0.0036911924835294485 0.0002811270533129573 -0.0034876230638474226 0.0002811270533129573 0.008971522562205791 0.0004753658431582153 -0.0034876230638474226 0.0004753658431582153 0.008307676762342453" free_energy=-210.01980590820312 pbc="T T T"
Li       2.33861213       3.56181283       4.82056437       0.17908324      -0.11765631       0.20976933       0.07382140       0.50863916      -0.51964879      -3.64685075
Li       4.58631900       3.85789228       2.39811416       0.37275127       0.18561397      -1.48870773      -0.48947084       0.19683325      -0.80073440      -3.52283886
Li       3.83104149       2.89482373      -0.14127931      -0.43734708      -0.74648982       1.08331500      -0.32605377      -0.14118208       0.49698314      -3.30825637
Li       3.53993313       0.55118937       3.72801179       1.29999734      -0.19555853      -0.32202952      -0.10092628       0.22529933      -0.23287304      -3.60573663
Li       1.62225063       0.53974799       1.54732406      -1.17509848      -0.26525137      -0.17166809       0.32310626       0.37587351       0.46314842      -3.60569189
Li      -2.87423177       6.20789226       0.72521231      -0.39703948       0.00268903      -0.49626169      -0.16208059       0.18876937       0.05388792      -3.60183154
Li       4.71468298       8.25453430       7.50664907       0.15530160      -0.13948146       0.76278615       0.71783936       0.09049476       0.06028973      -3.48190564
Li      -0.38370743      11.27594763       7.64092855       0.21595086      -0.25297666      -0.14425559      -0.06238449      -0.23017140       0.40069392      -3.30558503
Li       3.00999066       5.70606865       8.82195384      -0.28346864       0.88459495       0.53971453      -0.06048208       0.09220479      -0.29656732      -3.46391198
Li      -0.22927919       3.48329819       6.86655336      -0.09059119       0.62357966      -1.03732681       0.35386491       0.41993469       0.03222280      -3.56803249
Li       0.80913372       7.81911285       9.34118581       0.26745940       0.75922041       0.93959006       0.15207817       0.35523844      -0.15234704      -3.63480218
Li       2.40481982      10.26378194       7.70272863       0.38816315      -0.88896482       0.16346881       0.28799611      -0.34258053       0.02549513      -3.41955675
Li       9.86831210      -1.65843511       2.39163132      -1.25341022       0.36781376       0.83014599       0.02870465      -0.34153947      -0.04613380      -3.36416771
Li       7.67172948       2.32093035       4.87809526      -0.63045378       0.42534731       1.03142003      -0.12676674       0.08222274       0.13443342      -3.40433610
Li       6.94544695       4.56953654       7.56205816       0.80298961       0.09008727      -0.15500124       0.18331966       0.31544971      -0.08368963      -3.31917216
Li       6.00594431       1.73318811       7.21357519       1.13515568      -0.23388072      -0.73574634      -1.00135589      -0.67433774      -0.47114232      -3.33246337
Li       5.55187226      -1.96921740      14.36623924       0.60629832       1.34798541      -0.98720684      -0.34391573      -0.37994730      -0.04084402      -3.45378481
Li       6.89321055       2.70415081       9.59376265       0.69370890       1.59247523       0.48741600       0.26179737      -0.46213961       0.24405262      -3.34058541
Li      11.46823361       7.18348884       5.30760256       0.02140942       0.97212903      -1.25626974       0.34371400       0.14882043       0.50857061      -3.73414326
Li       8.28945978       9.29054894       0.63012502       0.94944111      -0.20232585       0.45120627      -0.94569594      -0.01156428      -0.04249262      -3.46501474
Li      11.39468890       4.04209070       2.02273296      -0.73453129      -0.74683680       1.22442989      -0.72230536       0.33242965      -0.02135199      -3.42035124
Li       7.89969565       5.64199044       4.22496536      -0.07070640       0.46806975       0.43975727       0.07333771       0.32208842      -0.19757119      -3.47291313
Li       7.67011895       9.53743884       4.22664785       0.38672262       0.22546516      -0.17204347       0.34187245       0.45561582       0.26672250      -3.42317943
Li       4.88982451       7.10404602       1.42955202       0.98759422       0.18771288      -0.87648878      -0.05942861       0.51466811       0.39240193      -3.53579834
P        5.14815647      -0.38944503       0.33940867      -0.79403213      -2.59061350      -1.05471280       0.24743310       0.30797935       0.69811428      -6.01627296
P        4.89979153       5.58146234       5.26026924      -1.13336575       0.27923044       0.09109736       1.14735591      -0.65011883      -1.35142267      -5.47818553
P        0.50551226       0.25486153       5.04650852      -1.49833934       1.20270490       0.22028981      -0.32695800      -0.31820619      -0.32270887      -5.17885995
P       -0.41669542       5.43381340      -0.26312408       0.67048248      -1.35008243       0.76003454      -0.90349185      -1.38868284      -1.25884116      -5.62743807
S        0.98561241       4.16020281       9.09300901      -0.25756576      -0.62045308      -0.42560390      -0.05034652       0.07074961      -0.03777039      -4.48014495
S        8.40562076       4.03235364       0.54734860       1.04084896      -2.68726246       0.70917200       0.79988593       0.75624692      -0.02547983      -4.25058728
S        4.65706449       0.74575907       9.00736719      -1.12974397       0.07639650      -1.68193268      -0.81493878       1.08230257      -0.94946235      -4.65118743
S        6.27783629       0.84453055       1.51585848      -1.49637505      -0.98265549       0.67048155       0.21753797       0.10954049      -0.23679993      -4.15345442
S        2.72729477       2.61067574       2.32615243       0.63893742      -3.23759862       2.31629327       0.34857947      -0.80739808      -0.09636816      -4.24942911
S        1.42344493       9.03491921       3.75326964      -0.27255817       3.37483749       0.19343078      -0.28553203       1.15717590       0.76475501      -4.67345178
S        9.65704765       9.26934993       6.39304292       3.51847279      -1.66813480       2.16627675       0.52332830       0.89214301      -1.11311948      -4.51294541
S        3.78709393       6.40014752       3.74308877      -1.18202444      -0.97702802       1.00246083      -0.00865094       0.31876373       0.55009520      -4.55916329
S        6.49780462       6.61286766       6.12844479      -1.17529303      -0.98878834      -2.92633611      -0.51948833       0.22817904      -0.05930729      -4.77323844
S        2.55084428       7.76165645       7.61825015      -0.68697690      -0.50425161       0.88715755      -0.43396899       0.10676310       0.18367058      -4.00670570
S        5.96395558       4.10941392       3.93775252      -0.96414986      -0.66071211      -2.07618261       1.25789213       0.32649174       1.62205374      -4.26523542
S        4.06150790       4.36644407       6.58651644      -3.07332757       0.89510214      -2.24947474      -0.29613215      -0.40310150       0.77921534      -4.61476088
S        9.69246486       1.48530130       3.75941150       1.59066598       1.36892401       0.50117397       0.02852493      -0.83617592       0.53108931      -4.53336969
S        1.86841216       1.76207814       6.02480737      -0.54025581      -0.85647012       0.22873922      -0.98147285      -1.60760617       0.39029932      -4.69319555
S        8.03845261       2.37110234       7.36678246       0.53212169       1.00884172      -0.22058434       0.23313205       0.75643367      -0.05749955      -4.74322574
S        6.28771865       8.44564879       9.74658664      -0.10224787       0.03267420       0.37594473      -0.11669607      -0.47134531      -0.26182261      -4.52044767
S        3.48871446       9.28657220       1.40661957       0.89013855       3.89037799      -2.24463164       0.60555369      -0.38276476      -0.09613600      -4.47166389
S        8.99381471       6.75498226       8.66811319       0.56724144       0.55146350      -1.34345013       0.15617493      -0.77449924       0.71901965      -4.36267927
S        0.56950463       6.31477856       1.20410677      -0.32720723      -0.87071891       0.76723006       0.57133615       0.82178265       0.85276926      -4.68518646
S        7.41898802       7.84726836       2.67046276       0.32605997      -0.81012938      -0.81495680       0.56912798      -0.24575152       0.05375820      -4.45647080
Cl       0.09715608      -0.25396884       0.18407539       1.42339039       0.82114171       1.01187510      -0.26488292      -0.21882032      -0.45695460      -3.68811905
Cl       0.31966015       5.03142117       5.12336450      -0.68899428      -1.13544636       0.77032876      -0.38101798      -0.14535603      -0.27566379      -3.52050698
Cl       5.46958996       0.17261806       5.26829393      -1.34074901       2.96604868       1.59636195       0.30268246      -0.13289520      -0.05371158      -3.68008196
Cl       5.11887328       5.14686162       0.45382078       2.07546731      -0.87076001       0.44950409      -0.36555350      -0.59294939      -0.66527760      -3.74273396
52
Lattice="10.279498 0.0 0.0 0.0 10.279498 0.0 0.0 0.0 10.279498" Properties=species:S:1:pos:R:3:momenta:R:3:forces:R:3:energies:R:1 spacegroup="_JSON {\"number\": 1, \"setting\": 1}" unit_cell=conventional occupancy="_JSON {\"0\": {\"Li\": 1.0}, \"1\": {\"Li\": 1.0}, \"2\": {\"Li\": 1.0}, \"3\": {\"Li\": 1.0}, \"4\": {\"Li\": 1.0}, \"5\": {\"Li\": 1.0}, \"6\": {\"Li\": 1.0}, \"7\": {\"Li\": 1.0}, \"8\": {\"Li\": 1.0}, \"9\": {\"Li\": 1.0}, \"10\": {\"Li\": 1.0}, \"11\": {\"Li\": 1.0}, \"12\": {\"Li\": 1.0}, \"13\": {\"Li\": 1.0}, \"14\": {\"Li\": 1.0}, \"15\": {\"Li\": 1.0}, \"16\": {\"Li\": 1.0}, \"17\": {\"Li\": 1.0}, \"18\": {\"Li\": 1.0}, \"19\": {\"Li\": 1.0}, \"20\": {\"Li\": 1.0}, \"21\": {\"Li\": 1.0}, \"22\": {\"Li\": 1.0}, \"23\": {\"Li\": 1.0}, \"24\": {\"P\": 1.0}, \"25\": {\"P\": 1.0}, \"26\": {\"P\": 1.0}, \"27\": {\"P\": 1.0}, \"28\": {\"S\": 1.0}, \"29\": {\"S\": 1.0}, \"30\": {\"S\": 1.0}, \"31\": {\"S\": 1.0}, \"32\": {\"S\": 1.0}, \"33\": {\"S\": 1.0}, \"34\": {\"S\": 1.0}, \"35\": {\"S\": 1.0}, \"36\": {\"S\": 1.0}, \"37\": {\"S\": 1.0}, \"38\": {\"S\": 1.0}, \"39\": {\"S\": 1.0}, \"40\": {\"S\": 1.0}, \"41\": {\"S\": 1.0}, \"42\": {\"S\": 1.0}, \"43\": {\"S\": 1.0}, \"44\": {\"S\": 1.0}, \"45\": {\"S\": 1.0}, \"46\": {\"S\": 1.0}, \"47\": {\"S\": 1.0}, \"48\": {\"Cl\": 1.0}, \"49\": {\"Cl\": 1.0}, \"50\": {\"Cl\": 1.0}, \"51\": {\"Cl\": 1.0}}" source=mace_800K frame_in_traj=500 config_type=Li6PS5Cl_md_snapshot energy=-210.12539672851562 stress="0.004675774369388819 -0.0019441046752035618 -0.0017772564897313714 -0.0019441046752035618 0.0017872145399451256 -0.006681890692561865 -0.0017772564897313714 -0.006681890692561865 0.0013298930134624243" free_energy=-210.12539672851562 pbc="T T T"
Li       1.98008857       3.40622667       5.52770468      -0.33974841      -0.17618935       0.25113905      -0.03592653      -0.23544008      -0.15403183      -3.56886669
Li       2.05759943       4.78635810       3.29055318       0.06980764      -0.95755957      -0.21730274      -0.33019647       1.82050741       0.30249074      -3.20696288
Li       3.13610369       3.43133604       0.39910739      -0.72320236      -0.05219030      -0.15337850      -0.45090044      -0.11092949      -0.08647589      -3.43733855
Li       4.49041054       3.66916949       2.47247963      -0.16865942       0.85735286       0.78547736       0.65609294       0.10514238       0.40017939      -3.38464233
Li       0.89226246      -0.45826528       1.81138227       0.02668500      -1.40787781       0.15336679       0.09984367       0.25277254       0.14193884      -3.54759821
Li      -2.84514101       5.04905168       1.73522935       0.82803767       0.06454034       1.01311691       0.10962760       0.18376593       0.02144173      -3.43190244
Li       3.94359055      10.70706846       3.49851094       1.09986156       0.88412713       0.06774044      -0.49789181       0.29589313      -0.28453946      -3.60777535
Li      -0.75584882      14.16232299       7.66404071      -0.62779040       0.08304668      -0.39141097       0.05994613       0.06429395      -0.57262850      -3.68655603
Li       3.81121055       7.63884384       9.97121912      -0.12663460       1.11455972       0.18492144       0.05618796       0.25469282      -0.07387472      -3.31829281
Li       0.44059042       8.42534396       7.95590654       1.09073801      -0.49722606       0.69589375      -0.04123736      -0.19952208       0.00116665      -3.51409149
Li       2.87302765      10.35198631       7.91753912       0.89170360       0.12958780       0.24020016       0.26985601       0.09272975       0.15746129      -3.45756426
Li       3.64916446       5.79267183       8.09575625      -0.77523897      -0.69198224       0.10089073      -0.03101148      -0.47196808      -0.21292058      -3.42359555
Li       9.01453762      -2.82315399       0.44198079      -0.19641387       0.08353467      -0.86880839       0.03773983      -0.32027665      -0.06136109      -3.60057531
Li       8.34061444      -0.04438715       7.88822854      -0.07827998       0.14850398       1.81316850      -0.23466706       0.75889474       0.38529789      -3.47784719
Li       5.47545768       1.95801359       7.28625974      -0.36510328      -0.79866856       0.47649615       0.27041298      -0.01346590      -0.80236530      -3.52716507
Li       7.60288262       1.53815168       5.29959114       0.13968600       0.06842330       0.08351825       0.23904859       0.44759345      -0.17785814      -3.63753547
Li       5.18382171      -2.91522392      12.49824751       0.90908605       0.09137905      -0.28546481       0.66165268       0.42600286      -0.35258287      -3.41377033
Li       6.55169774       3.36906965       9.32711635      -0.58269038      -0.42730694       1.42718518       0.24227291      -0.01726411      -0.03212655      -3.60283609
Li      12.30396227       7.43344143       5.58931007       1.04436372      -0.58636191      -0.02564478      -0.14584294      -0.32929975      -0.14850560      -3.47992395
Li       7.49363872       9.35332792       4.15390329      -1.14295574      -1.49038162      -0.35481202       0.19602329      -0.21762757      -0.17191064      -3.54000750
Li      10.46489434       3.23619062       2.33382129       0.53017324      -0.59743186       0.36344836      -0.38811141      -0.51449257       0.06999566      -3.55785398
Li       8.18420163       5.97033042       4.33258330      -1.18522492      -0.61070137      -1.71346849       0.64750177       0.18677536      -0.18360260      -3.65541001
Li       5.16925442       8.24764374       6.89269047      -0.73443496      -0.15571562      -0.21767011       0.14509821       0.30974534       0.03050548      -3.39093749
Li       7.48328914       9.82396337       0.84197842       1.25618947      -1.19921790       0.27778804       0.61865008      -0.68765301       0.01610102      -3.50392073
P        4.96392055       0.42217854       0.29762702       0.90853236       0.41436415       1.66714766       0.23374316      -0.48184073      -0.12178956      -5.40575683
P        5.59700918       5.15656391       5.01107045       1.15815986       0.13154871      -0.01515655       0.08756603      -0.94913375      -0.35729194      -5.96925002
P        0.52812368       0.27067298       5.04102667       0.74114559       2.54517641      -1.47540684      -3.37722349      -1.22501826      -1.27755070      -5.42491639
P       -0.37277416       4.72308817      -0.16314530      -0.13659125      -1.77022163       3.08164864      -0.50671363       0.61305833      -0.09034202      -5.34901202
S        1.30804617       4.02123939       9.15772416       0.52653799      -0.43995523      -0.49187297      -0.15237118       0.27885550       0.14448927      -4.57621424
S        8.69311487       3.16088602       0.40619262      -0.93320723      -1.22142782      -2.83182993       0.14910468       0.46416783       0.08926623      -4.64446707
S        4.35006641       1.91011164       9.27005629      -2.29402129       0.31134113      -2.25046446      -1.00214756      -0.05531989       0.32378066      -4.75905003
S        6.23075061       1.25807331       1.63215364       1.72567870      -0.54885585      -0.97598995      -0.50793946       0.36908790       0.01788851      -4.45018524
S        2.40603890       2.77970916       2.95109436      -0.76173583       0.65161833      -1.53279763       0.54565859      -1.33556986      -0.47460350      -4.37030691
S        1.56239891       9.21778637       3.99300469      -0.39714940      -0.93400680       0.67998702       1.04094374      -0.68216741      -0.39089251      -4.69253279
S        9.26861427       9.24027309       6.07731891       0.25003270      -0.51852571       0.42589592       0.50424016      -0.16788025      -0.46224201      -4.31254327
S        4.32269287       6.07469136       3.74865685      -2.34866159       3.67381589      -0.58540047      -1.50557375       0.02020171      -0.55137312      -4.54717413
S        6.58961082       6.60202164       5.91761524       1.89227818       1.52944807      -0.74182695       0.57797796       0.78007269       0.89759308      -4.46497694
S        3.00849410       8.04188192       7.65114676       0.99130963      -0.03986226      -1.74777395      -0.44653308      -0.38270241       0.40713629      -4.69275376
S        6.95048003       3.92097248       3.95480031       1.02944727      -1.13298722       2.06704591      -0.59322500       0.27538437       0.07115912      -4.48814183
S        4.27839718       4.15188370       6.21173552       0.73395005       1.75105827       0.65780928      -0.12194654      -0.43094441       0.84655011      -4.46519677
S        9.33416806       1.04248826       3.59849066       0.96314023      -0.17546396      -1.47321516       0.90662092       0.00080185       0.35759178      -4.40121081
S        1.26115180       1.12618917       6.58677350       0.22403720       0.56415658       1.31059178       1.06775618       1.80126226       1.62693512      -4.77162550
S        7.73896863       2.41872344       7.40559064       1.48107340       0.24302389      -0.85259329      -0.13478750      -0.34852934       0.38780105      -3.84466302
S        6.04036361       9.62796236       9.08405394       1.00651512      -0.69988938      -0.37128601       0.14204314      -0.52917725       0.36594445      -4.48235185
S        3.76621132       9.29213108       1.55888117      -1.22640751       1.91825327       1.17964558       0.15662338       0.22013164      -0.98478186      -4.63845393
S        8.76558552       6.02501183       8.63639045      -1.51869040      -2.15606812      -1.77501506       0.97493267      -0.59278709       1.43741274      -4.17326689
S       -0.01720039       5.62626401       1.76070053      -2.28146758      -1.35105667      -0.16962020       0.42928958      -0.26516503      -0.69111109      -4.56882922
S        7.62062297       7.53088374       2.26452230      -1.07143445       2.38819828       0.76468697      -0.65317869       0.47258437       0.20565042      -4.16071719
Cl      -0.19360501      -0.89165907      -0.15973793       0.62579443      -0.76176449       1.88752538      -0.28409582       0.18625590      -0.33886674      -3.67726254
Cl       0.36931603       5.19547192       5.46838039      -0.28401482       1.18785083      -0.65621955       0.40411401       0.08254819      -0.31049451      -3.47045684
Cl       5.58725536       0.53629907       4.99386267      -1.49075444       1.25142714      -1.47907172       0.02317254      -0.58945000       0.60056961      -3.61714065
Cl       4.83530821       5.12410435       0.08931019      -0.35345072      -0.68744118       1.99716604      -0.11222042       0.39040282       0.05977639      -3.73382187
52
Lattice="10.279498 0.0 0.0 0.0 10.279498 0.0 0.0 0.0 10.279498" Properties=species:S:1:pos:R:3:momenta:R:3:forces:R:3:energies:R:1 spacegroup="_JSON {\"number\": 1, \"setting\": 1}" unit_cell=conventional occupancy="_JSON {\"0\": {\"Li\": 1.0}, \"1\": {\"Li\": 1.0}, \"2\": {\"Li\": 1.0}, \"3\": {\"Li\": 1.0}, \"4\": {\"Li\": 1.0}, \"5\": {\"Li\": 1.0}, \"6\": {\"Li\": 1.0}, \"7\": {\"Li\": 1.0}, \"8\": {\"Li\": 1.0}, \"9\": {\"Li\": 1.0}, \"10\": {\"Li\": 1.0}, \"11\": {\"Li\": 1.0}, \"12\": {\"Li\": 1.0}, \"13\": {\"Li\": 1.0}, \"14\": {\"Li\": 1.0}, \"15\": {\"Li\": 1.0}, \"16\": {\"Li\": 1.0}, \"17\": {\"Li\": 1.0}, \"18\": {\"Li\": 1.0}, \"19\": {\"Li\": 1.0}, \"20\": {\"Li\": 1.0}, \"21\": {\"Li\": 1.0}, \"22\": {\"Li\": 1.0}, \"23\": {\"Li\": 1.0}, \"24\": {\"P\": 1.0}, \"25\": {\"P\": 1.0}, \"26\": {\"P\": 1.0}, \"27\": {\"P\": 1.0}, \"28\": {\"S\": 1.0}, \"29\": {\"S\": 1.0}, \"30\": {\"S\": 1.0}, \"31\": {\"S\": 1.0}, \"32\": {\"S\": 1.0}, \"33\": {\"S\": 1.0}, \"34\": {\"S\": 1.0}, \"35\": {\"S\": 1.0}, \"36\": {\"S\": 1.0}, \"37\": {\"S\": 1.0}, \"38\": {\"S\": 1.0}, \"39\": {\"S\": 1.0}, \"40\": {\"S\": 1.0}, \"41\": {\"S\": 1.0}, \"42\": {\"S\": 1.0}, \"43\": {\"S\": 1.0}, \"44\": {\"S\": 1.0}, \"45\": {\"S\": 1.0}, \"46\": {\"S\": 1.0}, \"47\": {\"S\": 1.0}, \"48\": {\"Cl\": 1.0}, \"49\": {\"Cl\": 1.0}, \"50\": {\"Cl\": 1.0}, \"51\": {\"Cl\": 1.0}}" source=mace_800K frame_in_traj=600 config_type=Li6PS5Cl_md_snapshot energy=-210.12489318847656 stress="0.006005312781780958 0.0033470019698143005 0.002418720396235585 0.0033470019698143005 0.0016213338822126389 -0.0035231600049883127 0.002418720396235585 -0.0035231600049883127 0.002033716533333063" free_energy=-210.12489318847656 pbc="T T T"
Li      -0.06962198       2.24941848       7.77909503       0.62374682       0.95429887      -0.23775300       0.81609035       0.05796751       0.04153301      -3.45000327
Li       0.32599845       3.43247706       2.94281511       0.47632250      -0.34655310      -0.55814879       0.14316010       0.03045798       0.18301700      -3.64039235
Li       4.55506304       1.34767960       2.93781667       1.57449428      -0.04079182      -0.39257618       0.32308632      -0.05148606      -0.29448390      -3.61016734
Li       3.63916484       4.38220857       2.76369841       1.02229368      -0.80909016       0.92381667      -0.01188534       0.42049405       0.02068074      -3.42885998
Li       3.66520545       3.31364921      -0.01811840       0.13892711       0.17310592      -0.46195112       0.06721319      -0.19388683       0.13436210      -3.37339323
Li      -1.62623647       6.81873100       4.72448028      -0.32092437       0.91183528       0.75583871      -0.36584783       0.30047899      -0.16756217      -3.62383865
Li       1.43556299      11.87353949       0.72986510      -0.37709606       0.06387237       0.12650577      -0.05511035       0.08567933       0.07458395      -3.43471951
Li      -2.66503116      14.86069868       8.72677164       0.77430546      -0.47697826       0.04783342      -0.03766911       0.28306210      -0.38259152      -3.53203300
Li       3.60889948       7.03630709      10.80782437      -0.96962787       0.55939592      -0.06142284       0.05726925      -0.34490743      -0.38687214      -3.24613851
Li      -0.37292389       8.56366398       8.26457267       0.84064883      -0.88003727       1.12189700       0.48677346      -0.24400200      -0.26889247      -3.63790296
Li       1.80089414       6.70472869       5.37972457       0.30968242      -0.18554237       0.56581980      -0.17400870      -0.08694647       0.27106312      -3.69442897
Li       3.11827185       9.34561960       6.21622508       0.54459027       0.32883832      -1.29123277      -0.07557610      -0.16640019      -0.14521959      -3.49536805
Li       8.08529904      -1.17237441       0.55273438       0.71973494      -1.06311970      -1.02461670       0.06738701       0.36361545      -0.63019878      -3.38515052
Li       7.34842051       0.38546017       6.80460980       0.89347276      -0.16219172      -0.11149937       0.74678564      -0.41955888       0.06787358      -3.33508947
Li       8.03254287       2.17193363      10.22368861      -0.33781417       0.14408551       0.68144401       0.24540019      -0.00330641      -0.60299498      -3.43888042
Li       7.99952049       3.84312596       5.05565660       0.84006729      -0.82895770       0.64766828       0.20614639      -0.04615273       0.46224627      -3.63109137
Li       7.64099959      -0.57972065      13.52807156      -0.41138883      -0.22931529      -0.00213323       0.10355121       0.59802383       0.48403776      -3.34351209
Li       5.67874259       1.87487644       6.64976073       0.18586198      -0.12733219      -0.08969718      -0.58475083       0.99777424       0.17208622      -3.40697096
Li      13.89743199       5.44094427       8.37784992      -0.37007985      -0.37149469       0.46670405      -0.44092524       0.67561418      -0.30455190      -3.57379235
Li      10.33420905       8.27560534       1.61792473       0.33494857      -0.63649020      -1.22573541       0.02889550      -0.49185419       0.28516263      -3.54878375
Li      12.60280222       2.50705646       5.02206791      -0.61275689      -0.63151668      -0.93619450       0.17372276       0.11550950      -0.10107905      -3.52932659
Li       7.30595270       6.11942779       0.72366613      -0.64971408      -0.09476639      -0.16049031       0.30046231      -0.43189985      -0.20837542      -3.46026944
Li       2.87722235       9.37366986       9.13174914      -0.29159122       0.45023804       0.23794868      -0.30540031      -0.18390670      -0.11239640      -3.38971820
Li       5.81276303       7.64965609       2.98198221      -0.83632767      -1.13394318       0.53232722      -0.62056816       0.04624628       0.07802632      -3.25930092
P        5.46173547       0.23330078      -0.21443040      -1.33724618      -0.41154244      -0.73882618       0.10476105       0.27690372      -0.15590909      -5.60444188
P        4.95427699       5.04235730       5.21350514      -1.70070347      -0.73954672       0.55278637       0.33910981       0.56740546       1.95065057      -5.87686408
P        0.07063075      -0.08557678       4.87074809       1.22698592       0.24487528       1.14282608      -1.33889616       0.67011827       0.67810172      -5.42326534
P        0.20338977       4.97089193       0.21776832      -1.53533144      -1.69961137       0.43115992      -1.69426465       1.02359843       0.83226806      -5.97088724
S        1.22315472       3.91651132       9.24221261       1.91084253       0.62463189      -2.35080048       1.35805571      -2.33617449      -2.06403208      -4.53813885
S        8.97221339       3.90996162       1.24325091       0.50070836       1.00942181      -0.14935086       0.34599671       0.34658319      -0.19595633      -4.49418998
S        4.07168128       1.23373187       8.78462809       0.43754557      -1.03509374      -2.85803360       0.39537925      -0.19027795       0.35289115      -4.62514937
S        6.26790882       1.54102334       1.23441132       0.60316228      -0.68045503       1.61560207      -0.24490550      -0.76680619      -0.60256249      -4.58805857
S        2.67397578       2.39096671       2.64959207      -2.35555680       1.27393995       1.84158438      -1.18773127       0.07424296      -0.54993832      -4.32590944
S        1.07083638       8.78775468       3.89581025      -0.61912586       1.04213575      -4.00660380       0.50620788      -0.16758823      -0.52914184      -4.61748879
S        8.81395289       8.94782433       5.89766248       0.46254248       0.86818891      -0.30275531       0.52245712       0.74656796      -0.27283818      -4.56671164
S        4.15495049       6.77944193       4.56362969      -0.81088920      -0.58673892      -1.24693182      -0.52583927       0.43859202      -0.96320736      -4.58201968
S        6.54426187       5.88438491       6.29010714      -2.03796058      -0.54196075       1.01442868       0.25961277      -0.31010312      -0.07154641      -4.06178451
S        2.11690478       7.51182230       7.67199793       0.80408961       0.28564158       2.24482424       0.48620957       0.54811227       0.42824048      -3.78811628
S        5.77427585       3.73853912       3.98356090       2.88859135       0.01139579       0.33028263       0.32720149      -0.49947932      -0.98285651      -4.59915530
S        3.54788043       4.15920027       6.53124617      -0.87209710       0.59234883      -4.12339734       0.37574381      -0.46776116      -0.86460161      -4.45003858
S        9.23344131       1.48659461       3.83014703       1.45190050      -0.24741048       0.01774391       0.48126045      -1.14962757       0.37727386      -4.39465427
S        1.28027115       0.83627036       6.31328806      -1.76635691      -0.84465779       2.19766806      -0.16076612      -0.29366910      -0.15948787      -4.80663599
S        8.12655214       2.62802097       7.55858738      -0.69457473       0.73235164      -0.45532358      -1.49376321      -0.34683192      -0.06558806      -4.29046813
S        6.74582720       9.39283638       8.87483792      -1.45900368       0.18184900       0.88218167      -0.42696086       0.36746472       0.33723089      -4.54384927
S        4.32393614       9.21935371       0.91481321       0.09000286      -0.95702484       1.22642704      -0.18481620      -0.10427731       0.32897663      -4.56179942
S        9.40713663       6.42085955       9.49731512      -0.43826659      -0.36896806      -0.48164759      -0.52787626      -0.11317594       0.01127857      -4.39914873
S        1.80247300       5.66738264       1.25856464       0.17250674      -0.94739630      -1.54538289       0.41784236       1.01815486       1.26681638      -4.34112948
S        7.89865899       7.65355238       2.19811901      -0.33888107      -2.09675547       1.77326826       0.43411419       0.21405476       0.90800071      -4.63691585
Cl       0.10067948      -0.36983606      -0.02248209       0.11964372      -0.16775436       1.70623398       0.03072071       0.27139187       0.00479683      -3.77204072
Cl      -0.15328104       5.17163731       4.65972479       0.09970420       2.86965728       1.39453223       0.21218660      -0.35217327       0.07200797      -3.52326679
Cl       5.15903760       0.50419215       4.83414747       0.02730741       3.70069024       0.41276326       0.30740693      -0.85890096       0.90536833      -3.55662054
Cl       5.37145197       5.15412677      -0.38743365       1.06868261       2.32023945      -0.07961105      -0.21264912       0.08304019       0.35430962      -3.71685755
52
Lattice="10.279498 0.0 0.0 0.0 10.279498 0.0 0.0 0.0 10.279498" Properties=species:S:1:pos:R:3:momenta:R:3:forces:R:3:energies:R:1 spacegroup="_JSON {\"number\": 1, \"setting\": 1}" unit_cell=conventional occupancy="_JSON {\"0\": {\"Li\": 1.0}, \"1\": {\"Li\": 1.0}, \"2\": {\"Li\": 1.0}, \"3\": {\"Li\": 1.0}, \"4\": {\"Li\": 1.0}, \"5\": {\"Li\": 1.0}, \"6\": {\"Li\": 1.0}, \"7\": {\"Li\": 1.0}, \"8\": {\"Li\": 1.0}, \"9\": {\"Li\": 1.0}, \"10\": {\"Li\": 1.0}, \"11\": {\"Li\": 1.0}, \"12\": {\"Li\": 1.0}, \"13\": {\"Li\": 1.0}, \"14\": {\"Li\": 1.0}, \"15\": {\"Li\": 1.0}, \"16\": {\"Li\": 1.0}, \"17\": {\"Li\": 1.0}, \"18\": {\"Li\": 1.0}, \"19\": {\"Li\": 1.0}, \"20\": {\"Li\": 1.0}, \"21\": {\"Li\": 1.0}, \"22\": {\"Li\": 1.0}, \"23\": {\"Li\": 1.0}, \"24\": {\"P\": 1.0}, \"25\": {\"P\": 1.0}, \"26\": {\"P\": 1.0}, \"27\": {\"P\": 1.0}, \"28\": {\"S\": 1.0}, \"29\": {\"S\": 1.0}, \"30\": {\"S\": 1.0}, \"31\": {\"S\": 1.0}, \"32\": {\"S\": 1.0}, \"33\": {\"S\": 1.0}, \"34\": {\"S\": 1.0}, \"35\": {\"S\": 1.0}, \"36\": {\"S\": 1.0}, \"37\": {\"S\": 1.0}, \"38\": {\"S\": 1.0}, \"39\": {\"S\": 1.0}, \"40\": {\"S\": 1.0}, \"41\": {\"S\": 1.0}, \"42\": {\"S\": 1.0}, \"43\": {\"S\": 1.0}, \"44\": {\"S\": 1.0}, \"45\": {\"S\": 1.0}, \"46\": {\"S\": 1.0}, \"47\": {\"S\": 1.0}, \"48\": {\"Cl\": 1.0}, \"49\": {\"Cl\": 1.0}, \"50\": {\"Cl\": 1.0}, \"51\": {\"Cl\": 1.0}}" source=mace_800K frame_in_traj=700 config_type=Li6PS5Cl_md_snapshot energy=-209.52816772460938 stress="0.0029398822225630283 -5.009874075767584e-05 -0.0003501342434901744 -5.009874075767584e-05 -0.000182236050022766 -0.00023710657842457294 -0.0003501342434901744 -0.00023710657842457294 -0.0022464918438345194" free_energy=-209.52816772460938 pbc="T T T"
Li      -3.38414307       3.47743058      10.19936072       0.25961761      -0.11224254       0.10460858       0.07953342      -0.54373205      -0.04450338      -3.46240036
Li       2.52298367       0.26523826       3.14486500      -0.86574508      -0.73154583       0.96858116       0.13550581       0.32908669      -0.17341289      -3.60159196
Li       2.64417697       2.26465911      -0.02431311      -1.05748861      -0.32022878      -1.35662895      -0.56573236      -0.05145885      -0.29603443      -3.56739123
Li       6.06505025       1.72751213       3.45087496      -0.46741218       0.97618615      -0.91447059      -0.58129203      -0.50819629      -0.22379509      -3.23589998
Li       1.92101029       3.26511418       4.11510597      -0.32919368       0.36809900      -1.06926280       0.21850605       0.21294013       0.89258432      -3.49580118
Li      -4.67350130       8.08003706       4.14710007       0.40381937      -1.52605232      -0.42229809       0.30095729      -0.20388842      -0.07660159      -3.49913847
Li       3.48733558      14.88962208       1.54084885      -0.00543861       1.13023852       0.08025515      -0.03340656      -0.05899927       0.40649122      -3.57677190
Li      -5.38933085      12.79207013       7.14797354      -2.06109851       0.07200740      -1.14426153       0.40105614       0.04546650      -0.01376286      -3.48303522
Li       5.96209457       6.58861772      11.50944635       1.04908356      -0.20728781       0.26913612       0.81768775       1.21066463       0.97333741      -3.42186809
Li       3.50749959       6.96095901       9.65886239      -0.82772811       0.46063621       0.16602890       0.20021722       0.34816915      -0.23420122      -3.60663454
Li       1.36495297       5.82405172       7.42447617       0.37181212      -0.11721813       0.97902647      -0.29299051      -0.95724267       0.47219276      -3.33312273
Li       2.84225647       9.84371098       7.14918861      -0.72350446      -0.90465733       0.14516993      -0.02468584       0.61385155       0.00497121      -3.48448849
Li      10.74900567      -1.79932847      -2.12697606       0.21521463       0.34198325       1.69342416       0.04604096       0.07433850       0.17046629      -3.52988628
Li       7.47992241       1.81569272       5.53525210       0.00083503       0.62625891       0.13070590       0.05897985      -0.04516846       0.30509883      -3.32661267
Li       8.72373396       1.01396623       8.03449011       0.18303696       0.21245261       0.28705512       0.55911249      -0.83666378       0.59868896      -3.44082702
Li       9.75036776       3.89231711       7.46717463       0.87090161      -0.25533655       0.53596600      -0.64448452      -0.00369212      -0.54397345      -3.42437167
Li       7.67061966      -0.36517359      12.62810249       0.12006926      -0.20598626       0.70643839       0.20577493      -0.53667253      -0.14111798      -3.54992080
Li       6.83684974       5.32556412       8.28373592       0.21570028      -0.38408371       0.03143825       0.20395172      -0.16672187      -0.10381591      -3.51308781
Li      12.33079239       6.75449509       5.50172149      -0.42030919      -0.47719019       0.09045007       0.89894426       0.36578926      -1.17245674      -3.38670184
Li       9.60278964       7.58742405       5.02658550      -0.97944669      -0.16083033      -0.42213683      -0.55098414      -0.33972624      -0.38337719      -3.41292831
Li      10.00672428       2.81378125       2.51682603       0.87058067       0.00607440      -0.89395070       0.61557531      -0.07840182      -0.48778009      -3.39339466
Li       8.39406511       5.37409162       3.68166227      -0.26368207       1.14688292       1.74496239      -0.09046218      -0.26875108      -0.03700467      -3.40325239
Li       4.87094486       8.39937897       6.83069678       1.28016342       0.08618977      -0.39848202       0.11345886      -0.48371899       0.65232331      -3.51957892
Li      10.97302665       7.92052767       0.68809463      -0.40413777      -0.30396462      -0.03905195      -0.37245351       0.97219145       0.29409903      -3.49067323
P        4.94070154      -0.02880265       0.15126250       0.97710665       0.54919467       0.52916277       1.40311790      -0.61680341       0.73894924      -6.00126553
P        4.92734918       4.99099178       5.06791218      -0.93751792      -1.06493536      -2.33853965       0.11075997       1.76505518       0.75256753      -5.55754125
P        0.01516415       0.07345826       4.99674788       1.97678046       0.33307034      -0.14833196      -0.58848566       0.16093358      -0.10134532      -5.63340855
P        0.15484119       5.10238207      -0.26523600      -1.43589042      -1.86652320      -1.90244521       0.14895299      -0.63119662      -0.40457213      -5.57364595
S        1.17148477       3.59941407       8.88518555      -2.19593199      -2.03382208      -0.43977945      -0.34608644       0.56584811       0.33854663      -4.43909734
S        8.99174858       4.42252394       1.04198884       0.23202421      -0.61084000      -0.20839569      -0.06997733      -0.17525104       0.14719748      -4.64428067
S        4.12885813       1.13275397       9.06780130      -0.85203657       0.57799058       0.22887508      -0.62128222       0.50802583      -1.50881755      -4.58150834
S        6.32750355       1.26630663       1.22662438       0.64685222       0.40394213      -2.16098466      -0.14048553      -0.05821452      -0.38225251      -4.47212562
S        2.48495644       2.55903800       2.10155976       0.02807052       2.81794826      -0.87793969      -0.36922795      -0.12149172       0.86728203      -3.99071491
S        0.71607895       8.95403959       3.72958340       2.64937699      -0.31849859       2.28203375       0.50998396      -0.34059927      -0.26440951      -4.53342357
S        9.32047043       9.40134505       6.57442907      -1.05434436      -0.81455234       1.19014625      -0.38117272       0.26470646      -0.44155729      -4.67006923
S        3.94550619       6.27530825       3.66845143      -0.48964072      -0.95661372      -1.92776010       0.52937555      -0.51865315       0.06241697      -4.57326216
S        6.03913817       6.37535604       6.42772105       1.41053472       0.68821329      -1.33122793      -0.22492154      -0.19438443      -1.17281163      -4.26884612
S        2.59289452       7.61027782       7.50523067      -2.99045871       0.62005054       0.81590010       0.25687572       0.86724323       0.35137808      -4.58259285
S        6.33117612       3.63549150       4.52735198       0.05740503      -0.92543886      -2.46398688       0.13953707       0.57357299      -0.61269546      -4.71818626
S        3.44882892       4.43962381       6.30515185       0.40877929      -1.69953290       0.40711917       0.08340375      -1.00467169       0.11932707      -4.46521635
S        8.83825390       1.21910374       3.74333803      -2.35882505      -0.69347889       0.15120674       0.28969762      -0.28411701       0.41915509      -4.68734041
S        1.52330777       1.18924792       5.68932397       1.06730275      -1.74007803       2.17419901       0.04369627       0.38192844       0.02216431      -4.52758980
S        7.54924512       2.80476999       7.54573825      -0.02247883       1.36634334      -0.90763151      -0.43913433       0.91511780       0.90005004      -4.28699154
S        6.13310587       8.88081375       9.48071355      -0.89000447       1.68601900       1.04321089      -0.09186654      -0.24763626      -0.03153221      -4.07877290
S        3.70338559       9.20174983       1.35361843       2.39598845       4.58165478      -0.37264766      -0.11708867      -0.33005449       0.26452965      -4.38510859
S        9.38272803       6.30478238       8.66547106      -0.88977586       2.02235467       0.22432517       0.29369235      -0.08820269       0.09078459      -4.68238601
S        1.78605224       5.96151224       0.63370632      -0.35186508      -1.19958465       2.49771403      -0.33833158       0.10338730       0.27899662      -4.65474264
S        7.82145500       7.47537698       3.00051731       2.68086104       0.09927077      -0.64384805      -0.59771192       0.42550933      -0.01379872      -3.91127336
Cl       0.37401585      -0.10172395      -0.47520517      -0.43278918       1.57957348      -0.02275932      -0.21658984      -0.40439510      -0.07548068      -3.25132871
Cl       0.59184799       5.16238946       5.09022148       0.65087766      -1.07980634       0.76370466      -1.29181707       0.02616068       0.01085638      -3.71476305
Cl       4.80267457      -0.10498384       5.48818827       0.21191268      -1.58875788       1.88527668       0.26673317       0.16154625      -0.41783306      -3.65852141
Cl       5.09206683       5.20305569      -0.07485676       2.07203594      -0.45354851       0.28069999       0.05954291      -0.79282695      -0.77551132      -3.82464135
52
Lattice="10.279498 0.0 0.0 0.0 10.279498 0.0 0.0 0.0 10.279498" Properties=species:S:1:pos:R:3:momenta:R:3:forces:R:3:energies:R:1 spacegroup="_JSON {\"number\": 1, \"setting\": 1}" unit_cell=conventional occupancy="_JSON {\"0\": {\"Li\": 1.0}, \"1\": {\"Li\": 1.0}, \"2\": {\"Li\": 1.0}, \"3\": {\"Li\": 1.0}, \"4\": {\"Li\": 1.0}, \"5\": {\"Li\": 1.0}, \"6\": {\"Li\": 1.0}, \"7\": {\"Li\": 1.0}, \"8\": {\"Li\": 1.0}, \"9\": {\"Li\": 1.0}, \"10\": {\"Li\": 1.0}, \"11\": {\"Li\": 1.0}, \"12\": {\"Li\": 1.0}, \"13\": {\"Li\": 1.0}, \"14\": {\"Li\": 1.0}, \"15\": {\"Li\": 1.0}, \"16\": {\"Li\": 1.0}, \"17\": {\"Li\": 1.0}, \"18\": {\"Li\": 1.0}, \"19\": {\"Li\": 1.0}, \"20\": {\"Li\": 1.0}, \"21\": {\"Li\": 1.0}, \"22\": {\"Li\": 1.0}, \"23\": {\"Li\": 1.0}, \"24\": {\"P\": 1.0}, \"25\": {\"P\": 1.0}, \"26\": {\"P\": 1.0}, \"27\": {\"P\": 1.0}, \"28\": {\"S\": 1.0}, \"29\": {\"S\": 1.0}, \"30\": {\"S\": 1.0}, \"31\": {\"S\": 1.0}, \"32\": {\"S\": 1.0}, \"33\": {\"S\": 1.0}, \"34\": {\"S\": 1.0}, \"35\": {\"S\": 1.0}, \"36\": {\"S\": 1.0}, \"37\": {\"S\": 1.0}, \"38\": {\"S\": 1.0}, \"39\": {\"S\": 1.0}, \"40\": {\"S\": 1.0}, \"41\": {\"S\": 1.0}, \"42\": {\"S\": 1.0}, \"43\": {\"S\": 1.0}, \"44\": {\"S\": 1.0}, \"45\": {\"S\": 1.0}, \"46\": {\"S\": 1.0}, \"47\": {\"S\": 1.0}, \"48\": {\"Cl\": 1.0}, \"49\": {\"Cl\": 1.0}, \"50\": {\"Cl\": 1.0}, \"51\": {\"Cl\": 1.0}}" source=mace_800K frame_in_traj=800 config_type=Li6PS5Cl_md_snapshot energy=-209.51759338378906 stress="0.0034894340205937624 -0.002044841181486845 -0.0014822859084233642 -0.002044841181486845 0.0013421759940683842 0.0030054186936467886 -0.0014822859084233642 0.0030054186936467886 -8.128860645228997e-05" free_energy=-209.51759338378906 pbc="T T T"
Li      -1.98927265      -0.00262152       7.23916090      -0.11368416      -0.77518689      -0.26097707      -0.36078250       0.43369344       0.53717190      -3.51838030
Li       2.91884274       5.50631933       3.44465691       0.22326685      -1.19041510      -0.69927378      -1.35021985      -0.67057729      -0.53123617      -3.33871847
Li       0.49558992       3.04926346       1.74287925       0.27577855      -0.48740089      -0.39965176      -0.45492232      -0.17879283       0.17036103      -3.25475858
Li       2.76647230       0.95313575       1.68150629      -0.66854050       0.46103562       0.41267545      -0.11580969      -0.14003111       0.60402310      -3.36832054
Li       3.04625215       3.47630288      -0.14024021       1.26179179      -0.02517808      -0.65876976       0.24090101       0.06034990       0.22711694      -3.48141447
Li      -4.12097250       5.96379660       2.25973428      -0.08780190      -0.49865955       0.19321221      -0.17111140       0.08101857      -0.42306471      -3.53638725
Li       4.74932542      13.40537075       2.10047765       0.88426917      -0.46939621      -0.15728803       0.47471365      -0.13668688      -0.08779284      -3.54618220
Li      -8.48232530      19.47422222       9.83565057       0.76131389       0.14125742       0.85482265       0.42944464      -0.26009706      -0.04770474      -3.51593329
Li       8.50414096      10.36154762      11.49914611       1.66899587       0.51691072       0.16223659      -0.37348777      -0.18552801       0.19840416      -3.55539910
Li       1.12521967       9.16817807      17.33806683       1.08732513       0.64518337       0.23709671      -0.44550726      -0.30062652      -0.11588977      -3.41681720
Li       3.21987752       6.67099197       9.94242356      -0.63838354      -0.39055426       1.52305122       0.22117354       0.00830090       0.01103359      -3.43651281
Li       3.09582255      11.51348046       4.79314745      -0.47281015       0.42518122      -0.13305533       0.70313734      -0.26494479      -0.31556863      -3.22984695
Li      11.90793224      -4.65479141      -3.32753878      -0.37517901      -0.96913802       0.70846240       0.15048680       0.45465374       0.05076924      -3.65983908
Li       3.93484716       1.13406516       7.51814718      -0.78566800      -0.69833150      -0.28560139      -0.05174535      -0.12279472      -0.27491072      -3.43530349
Li      10.46236737       1.74029036       8.19282520       1.10600065      -1.31435596       0.39358835      -0.36986485       0.40278733      -0.23605072      -3.57840563
Li       6.21289991       2.09009288       5.74018616       0.34196195       0.36107865       0.68827139       0.15413246       0.12155758      -0.14603734      -3.61424397
Li       6.39821481      -1.45037329      14.04465863      -0.24359481      -0.45361953      -0.65727976      -0.60798842       0.60046667      -0.31212452      -3.44509350
Li       7.58874041       3.66288963       9.02964689      -0.36431793      -0.40457112      -0.18619523      -0.78750932       0.19897051       0.64003605      -3.46297787
Li      11.54795590       2.99372851       4.65344288       0.75432475       1.31627845      -0.40329671      -0.49414617       0.39700931       0.09730498      -3.34889373
Li       8.06802881       7.26657972       4.80390485       0.82072081       1.46713097      -0.41755989       0.42254451      -0.37760782      -0.37771934      -3.37056150
Li       8.83021775       4.40902273       6.96224514       0.21545290       1.58096571      -0.10073401       0.10264623       0.41974759      -0.45505616      -3.40285145
Li       7.68362098       7.40872508      -0.00170162      -0.78800734       2.01234119       0.30602700      -0.29867864       0.30758482      -0.07003938      -3.52348903
Li       4.45984639       8.07436113       6.54927376       0.16615807       1.20252342       0.14094793      -0.06833082      -0.24432603       0.24087976      -3.67020990
Li       9.86663282       6.70111799       2.61212402       0.39311048      -0.18336660       0.57862108       0.28857511      -0.03067541       0.03719677      -3.63303070
P        5.21907395      -0.27838039       0.08861355       0.12358694       0.14124280       1.29443181       0.25817311       0.60421634       0.78935635      -5.64984536
P        5.33369254       5.06573938       5.11017603       2.35791983      -2.00658139       2.19997542       0.78952038       0.22448918      -0.23060042      -5.75403655
P        0.26212090       0.04180625       4.47807604      -0.29746422       1.25639158      -1.71760109       0.10550830      -0.24613786       0.31707174      -5.36200011
P       -0.26919587       4.93652005      -0.36709665       3.53500301       1.36460361       0.49522747       1.72074974       1.17890906      -0.34197479      -5.67190170
S        1.19727098       3.98546113       8.69053912       1.60118458       2.24632186       0.60681017      -0.49282798      -0.43955618      -0.15747431      -4.68287452
S        8.81265443       3.93132514       0.82899289      -2.55858215      -1.75084509      -0.83722762      -0.61113262      -0.63290823       0.42721111      -4.65683223
S        3.47243801       1.00315584       9.78967989      -0.79106616      -0.14347872      -0.05993156       0.30682218      -0.03039473      -0.32256579      -4.70889327
S        5.99069104       0.61861174       1.87889394       0.20419814       0.99809800       1.97397495       0.02001897       0.39138415      -0.47356716      -4.27687299
S        2.50124870       3.35606132       2.61202415       0.76265234      -0.72140136       1.17400400       0.53890735      -1.10468113       0.02209720      -4.66334324
S        1.43674040       9.23518017       3.19739766      -0.49796839       0.64022906       0.39398489      -0.23968872       0.95412368       0.25136405      -4.48424286
S        9.28148716       9.11114805       5.61697239      -1.91476218      -1.31294942       0.41450211       0.27397972      -0.64782798      -0.01036230      -4.61246217
S        4.24369361       6.71633340       4.51622790       1.16900155       0.06235989       1.63949704       0.91732889       0.73359448       0.19485079      -4.58819890
S        6.80951714       5.97703830       6.28114666       1.17317838      -0.66260325       1.82767517      -0.44192338      -0.34745458       0.21462572      -4.45894894
S        2.58672802       7.69918507       7.99356266      -0.58944936       0.53717969       0.84896537       0.13680544      -0.06098209      -0.14016384      -4.14440286
S        6.37292080       4.10554931       3.58533835      -0.07424889       0.39842532       0.24870614      -0.11308957      -0.13941193       0.61699802      -4.48427144
S        4.06615136       3.69098539       5.89551787      -0.76575258      -0.77985795      -2.76141017      -0.19562724      -0.35682017       0.57660306      -4.53987849
S        9.27015926       1.53821617       4.07996235      -0.45351519      -2.26812167       1.26257469       0.47752786       0.38685250      -1.02084494      -4.45807976
S        1.49189500       1.01373869       6.37516958       0.38631169      -2.29784283      -3.48732334       0.28685933       0.39797899      -0.60669529      -4.58998502
S        7.93261004       2.29862935       7.27848690       2.52016856       0.87436273      -1.42025069       0.35588354      -0.06950131       0.02571653      -4.06921554
S        6.63242693       9.44378675       9.05367554      -0.10491084      -1.15413935      -3.93457722      -0.19811633      -0.21921608       0.11934386      -4.45868509
S        4.27693112       8.54071676       1.07370125      -2.30918249       0.66367180      -0.80701190      -0.69616055      -1.02339268       0.12978251      -4.37157091
S        9.18177981       6.42307406       8.82138689      -1.10413417       0.41262106      -0.63123568      -0.18760720      -0.48376086      -0.59601927      -4.47698349
S        1.14378145       5.97039078       0.79913336      -0.78264659       1.38131417       1.23687058      -0.18283230       0.26321635       0.46956933      -4.33905849
S        7.75292804       7.65040920       2.28396261      -0.50523930      -0.31123354       1.44501065       0.45202339       0.03352056       0.51284438      -4.37428275
Cl      -0.20720532       0.07673910      -0.62041847      -1.81260744      -0.33573083      -0.99577048      -0.00963752      -0.17957436       0.15264875      -3.62517691
Cl       0.37751761       5.68486227       4.85352373      -1.19839990      -0.99690821      -0.56308908       0.10467818      -0.46379271      -0.04163902      -3.50670660
Cl       5.16303413      -0.16083580       5.72527376      -2.77689457       0.86810133      -0.33376996      -0.17669004       0.51543736      -0.23708902      -3.70842457
Cl       5.40316183       4.40754966       0.13044378      -0.71886371       0.62705831      -1.35234271      -0.43710393       0.18823832      -0.06218969      -3.45676601
52
Lattice="10.279498 0.0 0.0 0.0 10.279498 0.0 0.0 0.0 10.279498" Properties=species:S:1:pos:R:3:momenta:R:3:forces:R:3:energies:R:1 spacegroup="_JSON {\"number\": 1, \"setting\": 1}" unit_cell=conventional occupancy="_JSON {\"0\": {\"Li\": 1.0}, \"1\": {\"Li\": 1.0}, \"2\": {\"Li\": 1.0}, \"3\": {\"Li\": 1.0}, \"4\": {\"Li\": 1.0}, \"5\": {\"Li\": 1.0}, \"6\": {\"Li\": 1.0}, \"7\": {\"Li\": 1.0}, \"8\": {\"Li\": 1.0}, \"9\": {\"Li\": 1.0}, \"10\": {\"Li\": 1.0}, \"11\": {\"Li\": 1.0}, \"12\": {\"Li\": 1.0}, \"13\": {\"Li\": 1.0}, \"14\": {\"Li\": 1.0}, \"15\": {\"Li\": 1.0}, \"16\": {\"Li\": 1.0}, \"17\": {\"Li\": 1.0}, \"18\": {\"Li\": 1.0}, \"19\": {\"Li\": 1.0}, \"20\": {\"Li\": 1.0}, \"21\": {\"Li\": 1.0}, \"22\": {\"Li\": 1.0}, \"23\": {\"Li\": 1.0}, \"24\": {\"P\": 1.0}, \"25\": {\"P\": 1.0}, \"26\": {\"P\": 1.0}, \"27\": {\"P\": 1.0}, \"28\": {\"S\": 1.0}, \"29\": {\"S\": 1.0}, \"30\": {\"S\": 1.0}, \"31\": {\"S\": 1.0}, \"32\": {\"S\": 1.0}, \"33\": {\"S\": 1.0}, \"34\": {\"S\": 1.0}, \"35\": {\"S\": 1.0}, \"36\": {\"S\": 1.0}, \"37\": {\"S\": 1.0}, \"38\": {\"S\": 1.0}, \"39\": {\"S\": 1.0}, \"40\": {\"S\": 1.0}, \"41\": {\"S\": 1.0}, \"42\": {\"S\": 1.0}, \"43\": {\"S\": 1.0}, \"44\": {\"S\": 1.0}, \"45\": {\"S\": 1.0}, \"46\": {\"S\": 1.0}, \"47\": {\"S\": 1.0}, \"48\": {\"Cl\": 1.0}, \"49\": {\"Cl\": 1.0}, \"50\": {\"Cl\": 1.0}, \"51\": {\"Cl\": 1.0}}" source=mace_800K frame_in_traj=900 config_type=Li6PS5Cl_md_snapshot energy=-210.75209045410156 stress="0.004153624176979065 -0.0017824936658143997 0.002743636956438422 -0.0017824936658143997 0.0022171330638229847 -0.0015056226402521133 0.002743636956438422 -0.0015056226402521133 0.0048768240958452225" free_energy=-210.75209045410156 pbc="T T T"
Li      -2.22697448       0.55051173       9.39446844       0.03284314      -0.20523595      -0.83578265      -0.24325532      -0.24798548      -0.18230698      -3.59125508
Li       3.18572456       2.48907275       4.78872449      -0.29791356      -0.23668604       0.09068337      -0.25924292      -0.08136395       0.29258877      -3.48628485
Li       3.49357595       2.85198360       0.12751978      -0.23192902      -0.48634751      -0.32587364      -0.11022335       0.25298053       0.14112699      -3.53901887
Li       0.30906278      -2.91555334       6.41829358       0.72400612       0.04355842       0.73525692       0.04147344       0.34262997       0.57464665      -3.46566173
Li       2.22604167       0.36321204       1.61137237       0.28395108      -0.32787530      -0.11096440      -0.24122986       0.30610436       0.32594341      -3.47016251
Li      -2.36454632       5.48054805       3.46052585       2.04800929      -1.01819426       0.22622332       0.33334154       0.01642103      -0.09201666      -3.60923694
Li       0.22697629      12.98914244       2.23815166       0.31052206       0.54691280       1.00398638       0.37723851       0.21988402      -0.18271816      -3.59079145
Li      -6.58180246      20.27761458       6.95818858       0.02737547       0.41963839      -0.56609632      -0.03037192      -0.08277829       0.27601862      -3.55959783
Li       5.53514912       7.83833390      12.96885301      -1.22220705       0.27560976       1.77841418       0.14431415      -0.18635044       0.09211144      -3.52769551
Li       0.23685040       7.01906795      13.69102538       0.39416434      -0.25855716       0.23847497      -0.31430796       0.25271016      -0.18450578      -3.49661011
Li       1.13995624       8.35844752       9.31030794       0.40910888       0.36005780      -0.64071025      -0.29314598       0.27006891       0.26066253      -3.42534201
Li       5.23183964      11.96188013       2.91758678      -0.84019352      -0.99437376      -0.14766464      -0.16886634       0.04396684      -0.00747803      -3.49436642
Li      12.43746602      -5.00163397      -3.39062504       0.06744097       0.58375855       0.26395900       0.13437963      -0.05379721       0.35188037      -3.44524385
Li       2.93132460      -2.36739759       5.45090629      -1.16228116      -1.09442934      -1.38666826       0.67245424      -0.91268277       0.45789075      -3.32665527
Li      13.37518251       4.78898008       1.93179836      -0.07640807       0.89571538       0.50638421       0.30773345       0.11161935       0.11090651      -3.44624677
Li       6.26794276       1.78988564       6.07413431       0.21992796      -0.39531577       0.81471030       0.37969574       0.85978526       0.75846279      -3.40324529
Li       8.53095406      -0.42213070      12.31494987       0.86917337       0.33139003       1.19063636      -0.12708165       0.09255645       0.46040761      -3.58357902
Li       6.16146382       4.40915329       7.95887176       1.04010632       1.52783270      -0.02113410      -0.10922180       0.04326202      -0.07155992      -3.47238874
Li       8.44954556       3.47586611      -4.61459920      -0.38385325       0.42227837       0.31573866       0.19420183      -0.01715071      -0.03060304      -3.40782630
Li       7.21023716       8.71006901       5.32692075       0.35939564      -0.26250773       1.27723417       0.17911205      -0.00966519      -0.31178436      -3.63220386
Li       7.23278326       3.42734389      10.22971956       0.24819287      -0.51525850      -0.56931560      -0.05443767      -0.39620271      -0.11242988      -3.55167064
Li       8.62505803       7.47363693       0.58090663      -1.67398695      -1.58648133       0.24775369      -0.31000781       0.10246617      -0.12441686      -3.31299530
Li       3.45448238       6.64181323      10.03368240      -0.65577722      -0.02501841      -0.20869279       0.21457875       0.18846439      -0.44277483      -3.55528376
Li      10.21103776       1.84541590      -2.29285770      -0.30785812      -0.12012928       0.76940051       0.20400861       0.20632152       0.28258410      -3.47427133
P        5.11067190      -0.07046865      -0.06863768       2.58751620       1.07000943      -1.56449325       0.37895104       0.02043334       0.08968270      -6.08344996
P        5.10036570       5.31668275       5.01674800      -1.51501566       0.09542098      -0.71253740       0.34709707      -0.66946584      -0.83526444      -5.77122951
P        0.52421030       0.49718331       5.24881965      -0.18359324       1.76410871      -1.67596490       0.17021479      -0.20639212      -0.24279186      -5.68246222
P        0.17889204       5.37931876      -0.09404799       0.80967562      -1.99999527       0.11250213      -0.75332904      -1.25419140      -1.07899761      -5.49968851
S        1.39333786       4.01451588       9.10589017      -1.40306324      -2.66011511       0.72130595      -0.61612988       0.41556495       0.18637589      -4.47508010
S        8.99922607       4.29812105       1.14318166      -2.64733447      -0.85946564      -0.32343472       0.71581602       0.59076595      -0.41531709      -4.50847650
S        4.11469453       1.15973752       8.93878155      -0.83505408      -0.16354167      -1.72901940      -0.30140576       0.23706613       0.08367342      -4.44147334
S        6.63541555       0.91283431       1.00075390       0.95315690      -2.40405779       0.87569494      -0.25484109       0.57205904       0.38046315      -4.60257124
S        2.61829053       2.74161779       2.59732976      -0.38841933       2.12219404      -0.03046615       0.30836818      -1.06833875      -0.72953838      -4.29319394
S        1.85268422       9.43484516       4.41341610       0.85840615      -0.26691338       0.18358049      -0.18292812       0.43709323      -1.21633482      -4.43803367
S        9.47489966       9.47043840       6.07095772       2.00560566       3.14193068       0.31397115      -0.41790536      -0.14998738       0.92243952      -4.35925618
S        3.71675524       6.16173835       3.77389107      -0.82812146       0.29666561       1.73460672       0.03922880       0.54872179       0.10729714      -4.65746887
S        6.09680933       6.64598785       6.08912498       2.12069563       0.03748467      -1.30025985       0.45560309       0.11522481       0.35301152      -4.35191202
S        2.64201443       7.53920440       7.79207435       0.46776819       0.49234960       0.60310443       0.01553416      -0.08502420      -0.62935942      -4.20209330
S        6.25458534       3.90347788       3.81599265      -0.78184515      -0.04745012      -0.65145286       0.08417845       0.09983105       0.64144588      -4.45869684
S        4.30068638       3.97894993       6.31921295      -1.33936133      -1.90147193       1.53246725      -0.37269416      -0.40791276       0.54842067      -4.76478915
S        9.53443784       1.29711073       3.72394572       1.52868368      -0.76312468      -0.21483932       0.06314751       0.12556507       1.02785969      -4.38714537
S        1.86728361       1.46512043       6.69209838      -0.86412740       0.49356856       0.39823063      -0.84265536      -0.31037799      -1.12694788      -4.54284060
S        7.94466785       2.30199419       7.86947351      -1.16214210       0.84931978      -1.47082289      -0.70304275       0.92957073      -0.53088719      -4.35645419
S        5.94475197       8.87203796       9.03368479       2.79798559       3.15590276      -0.23248512       0.81741500      -0.63380575      -0.49565360      -4.01639342
S        4.04455396       9.13906138       1.32605205       0.62356247      -1.48723573       0.68941317      -0.54558760      -0.14293541       0.18695882      -4.60582810
S        9.59501841       6.86800317       8.87796180       2.64934200      -3.63186795      -0.93757779       0.06772498      -0.87521768       0.26564804      -4.54201713
S        1.39486866       6.21751924       1.22326828      -1.96561306       0.96739004      -1.66866150       0.63864809       1.10888004       0.70573360      -4.89465724
S        7.97394677       7.62646490       2.74164698      -2.26496890       0.39370288       0.02819209      -0.06448777       0.68949413       0.29399839      -4.30815542
Cl      -0.32844894       0.10783815       0.36697766      -0.11346686       2.71490819      -0.45856818       0.81664711      -0.30670077      -0.45079571      -3.67072523
Cl      -0.41798870       5.59760212       5.15425184      -0.99682327      -0.61838636       0.90130911       0.08481829      -0.48862103      -0.01037852      -3.65619981
Cl       5.55027349       0.09957637       5.09686987      -1.25059699       1.83974672       0.68917005      -0.58466822      -0.57064307      -0.51206475      -3.70660830
Cl       5.20643609       4.75344298       0.00743284       0.95533898      -0.51141844      -0.45891873      -0.28485733      -0.04192010      -0.16131335      -3.60740328
